User:   rasmus@AsusN550
Date:   Thu Oct 25 13:47:33 2018
Arch:   x86_64
Pid:    13768
Python: 3.6.3
gpaw:   /home/rasmus/anaconda3/lib/python3.6/site-packages/gpaw
_gpaw:  /home/rasmus/anaconda3/lib/python3.6/site-packages/
        _gpaw.cpython-36m-x86_64-linux-gnu.so
ase:    /home/rasmus/.local/lib/python3.6/site-packages/ase (version 3.16.2)
numpy:  /home/rasmus/.local/lib/python3.6/site-packages/numpy (version 1.15.1)
scipy:  /home/rasmus/.local/lib/python3.6/site-packages/scipy (version 1.1.0)
units:  Angstrom and eV
cores:  1

Input parameters:
  kpts: [7 7 7]
  mode: {ecut: 600.0,
         name: pw}
  nbands: -10
  occupations: {fixmagmom: True,
                name: fermi-dirac,
                width: 0.05}
  spinpol: True
  xc: PBE

System changes: positions, numbers, cell, pbc, initial_charges, initial_magmoms

Initialize ...

Fe-setup:
  name: Iron
  id: 37abbd8d6c3c35915a9b583b742da910
  Z: 26
  valence: 8
  core: 18
  charge: 0.0
  file: /usr/share/gpaw-setups/Fe.PBE.gz
  cutoffs: 1.06(comp), 2.06(filt), 2.67(core), lmax=2
  valence states:
                energy  radius
    4s(2.00)    -5.291   1.164
    4p(0.00)    -1.326   1.058
    3d(6.00)    -7.505   1.058
    *s          21.920   1.164
    *p          25.885   1.058
    *d          19.706   1.058

  Using partial waves for Fe as LCAO basis

Reference energy: -69238.909200

Spin-polarized calculation.
Magnetic moment: 7.000000

Occupation numbers:
  Fixed magnetic moment
  Fermi-Dirac: width=0.0500 eV

Convergence criteria:
  Maximum total energy change: 0.0005 eV / electron
  Maximum integral of absolute density change: 0.0001 electrons
  Maximum integral of absolute eigenstate change: 4e-08 eV^2
  Maximum number of iterations: 333

Symmetries present (total): 48

  ( 1  0  0)  ( 1  0  0)  ( 1  0  0)  ( 1  0  0)  ( 1  0  0)  ( 1  0  0)
  ( 0  1  0)  ( 0  1  0)  ( 0  0  1)  ( 0  0  1)  ( 0  0 -1)  ( 0  0 -1)
  ( 0  0  1)  ( 0  0 -1)  ( 0  1  0)  ( 0 -1  0)  ( 0  1  0)  ( 0 -1  0)

  ( 1  0  0)  ( 1  0  0)  ( 0  1  0)  ( 0  1  0)  ( 0  1  0)  ( 0  1  0)
  ( 0 -1  0)  ( 0 -1  0)  ( 1  0  0)  ( 1  0  0)  ( 0  0  1)  ( 0  0  1)
  ( 0  0  1)  ( 0  0 -1)  ( 0  0  1)  ( 0  0 -1)  ( 1  0  0)  (-1  0  0)

  ( 0  1  0)  ( 0  1  0)  ( 0  1  0)  ( 0  1  0)  ( 0  0  1)  ( 0  0  1)
  ( 0  0 -1)  ( 0  0 -1)  (-1  0  0)  (-1  0  0)  ( 1  0  0)  ( 1  0  0)
  ( 1  0  0)  (-1  0  0)  ( 0  0  1)  ( 0  0 -1)  ( 0  1  0)  ( 0 -1  0)

  ( 0  0  1)  ( 0  0  1)  ( 0  0  1)  ( 0  0  1)  ( 0  0  1)  ( 0  0  1)
  ( 0  1  0)  ( 0  1  0)  ( 0 -1  0)  ( 0 -1  0)  (-1  0  0)  (-1  0  0)
  ( 1  0  0)  (-1  0  0)  ( 1  0  0)  (-1  0  0)  ( 0  1  0)  ( 0 -1  0)

  ( 0  0 -1)  ( 0  0 -1)  ( 0  0 -1)  ( 0  0 -1)  ( 0  0 -1)  ( 0  0 -1)
  ( 1  0  0)  ( 1  0  0)  ( 0  1  0)  ( 0  1  0)  ( 0 -1  0)  ( 0 -1  0)
  ( 0  1  0)  ( 0 -1  0)  ( 1  0  0)  (-1  0  0)  ( 1  0  0)  (-1  0  0)

  ( 0  0 -1)  ( 0  0 -1)  ( 0 -1  0)  ( 0 -1  0)  ( 0 -1  0)  ( 0 -1  0)
  (-1  0  0)  (-1  0  0)  ( 1  0  0)  ( 1  0  0)  ( 0  0  1)  ( 0  0  1)
  ( 0  1  0)  ( 0 -1  0)  ( 0  0  1)  ( 0  0 -1)  ( 1  0  0)  (-1  0  0)

  ( 0 -1  0)  ( 0 -1  0)  ( 0 -1  0)  ( 0 -1  0)  (-1  0  0)  (-1  0  0)
  ( 0  0 -1)  ( 0  0 -1)  (-1  0  0)  (-1  0  0)  ( 0  1  0)  ( 0  1  0)
  ( 1  0  0)  (-1  0  0)  ( 0  0  1)  ( 0  0 -1)  ( 0  0  1)  ( 0  0 -1)

  (-1  0  0)  (-1  0  0)  (-1  0  0)  (-1  0  0)  (-1  0  0)  (-1  0  0)
  ( 0  0  1)  ( 0  0  1)  ( 0  0 -1)  ( 0  0 -1)  ( 0 -1  0)  ( 0 -1  0)
  ( 0  1  0)  ( 0 -1  0)  ( 0  1  0)  ( 0 -1  0)  ( 0  0  1)  ( 0  0 -1)

343 k-points: 7 x 7 x 7 Monkhorst-Pack grid
20 k-points in the irreducible part of the Brillouin zone
       k-points in crystal coordinates                weights
   0:     0.00000000    0.00000000    0.00000000          1/343
   1:     0.14285714    0.00000000    0.00000000          6/343
   2:     0.14285714    0.14285714    0.00000000         12/343
   3:     0.14285714    0.14285714    0.14285714          8/343
   4:     0.28571429    0.00000000    0.00000000          6/343
   5:     0.28571429    0.14285714    0.00000000         24/343
   6:     0.28571429    0.14285714    0.14285714         24/343
   7:     0.28571429    0.28571429    0.00000000         12/343
   8:     0.28571429    0.28571429    0.14285714         24/343
   9:     0.28571429    0.28571429    0.28571429          8/343
          ...
  19:     0.42857143    0.42857143    0.42857143          8/343

Wave functions: Plane wave expansion
  Cutoff energy: 600.000 eV
  Number of coefficients (min, max): 751, 800
  Pulay-stress correction: 0.000000 eV/Ang^3 (de/decut=0.000000)
  Using FFTW library
  ScaLapack parameters: grid=1x1, blocksize=None

Eigensolver
   Davidson(niter=1, smin=None, normalize=True)

Densities:
  Coarse grid: 16*16*16 grid
  Fine grid: 32*32*32 grid
  Total Charge: 0.000000

Density mixing:
  Method: sum
  Backend: pulay
  Linear mixing parameter: 0.05
  Mixing with 5 old densities
  Damping of long wave oscillations: 50

Hamiltonian:
  XC and Coulomb potentials evaluated on a 32*32*32 grid
  Using the PBE Exchange-Correlation functional

Total number of cores used: 1

Number of atoms: 2
Number of atomic orbitals: 18
Number of bands in calculation: 21
Bands to converge: occupied states only
Number of valence electrons: 16

... initialized

Initializing position-dependent things.

Density initialized from atomic densities
Creating initial wave functions:
  18 bands from LCAO basis set
  3 bands from random numbers

 | |  Fe  |
 Fe-----*

Positions:
   0 Fe     0.000000    0.000000    0.000000    ( 0.0000,  0.0000,  3.5000)
   1 Fe     1.430000    1.430000    1.430000    ( 0.0000,  0.0000,  3.5000)

Unit cell:
           periodic     x           y           z      points  spacing
  1. axis:    yes    2.860000    0.000000    0.000000    16     0.1787
  2. axis:    yes    0.000000    2.860000    0.000000    16     0.1787
  3. axis:    yes    0.000000    0.000000    2.860000    16     0.1787

  Lengths:   2.860000   2.860000   2.860000
  Angles:   90.000000  90.000000  90.000000

Effective grid spacing dv^(1/3) = 0.1787

                     log10-error:    total        iterations:
           time      wfs    density  energy       fermi  poisson  magmom
iter:   1  13:47:38  +4.02   +inf   -16.062711    28              +7.0000
iter:   2  13:47:40  +0.16   +inf   -16.167990    34              +7.0000
iter:   3  13:47:41  -0.96   +inf   -16.182222    34              +7.0000
iter:   4  13:47:43  -1.21  -1.43   -16.183883    34              +7.0000
iter:   5  13:47:45  -0.40  -1.46   -16.191702    33              +7.0000
iter:   6  13:47:47  -1.15  -1.85   -16.172632    32              +7.0000
iter:   7  13:47:49  -1.91  -1.84   -16.202586    33              +7.0000
iter:   8  13:47:51  -2.10  -2.94   -16.203347    33              +7.0000
iter:   9  13:47:53  -2.84  -3.05   -16.204213    34              +7.0000
iter:  10  13:47:55  -2.86  -2.73   -16.203446    33              +7.0000
iter:  11  13:47:57  -3.87  -3.09   -16.203491    33              +7.0000
iter:  12  13:48:00  -3.92  -3.13   -16.203550    34              +7.0000
iter:  13  13:48:02  -4.50  -3.63   -16.203560    34              +7.0000
iter:  14  13:48:06  -4.87  -3.75   -16.203572    33              +7.0000
iter:  15  13:48:09  -4.17  -4.03   -16.203570    34              +7.0000
iter:  16  13:48:11  -4.50  -3.50   -16.203564    35              +7.0000
iter:  17  13:48:14  -5.96  -3.96   -16.203564    33              +7.0000
iter:  18  13:48:16  -6.42  -4.60   -16.203564    34              +7.0000
iter:  19  13:48:19  -7.04  -5.07   -16.203564    34              +7.0000
iter:  20  13:48:21  -7.21  -5.12   -16.203564    34              +7.0000
iter:  21  13:48:23  -7.54  -5.13   -16.203564    31              +7.0000

Converged after 21 iterations.

Dipole moment: (0.000000, -0.000000, 0.000000) |e|*Ang

Total magnetic moment: (0.000000, 0.000000, 6.999899)
Local magnetic moments:
   0 Fe ( 0.000000,  0.000000,  3.363082)
   1 Fe ( 0.000000,  0.000000,  3.363090)

Energy contributions relative to reference atoms: (reference = -69238.909200)

Kinetic:        +38.147096
Potential:      -30.735119
External:        +0.000000
XC:             -23.703354
Entropy (-ST):   -0.019520
Local:           +0.097573
Free energy:    -16.213324
Extrapolated:   -16.203564

Spin contamination: 0.000000 electrons
Fermi levels: 13.29527, 9.42627

Warning: Showing only first 2 kpts
                      Up                     Down
 Kpt  Band  Eigenvalues  Occupancy  Eigenvalues  Occupancy
  0     6      8.33803    0.00292     11.82911    0.00000
  0     7      8.33803    0.00292     11.82911    0.00000
  0     8      9.27785    0.00292     12.76934    0.00000
  0     9      9.27785    0.00292     12.76934    0.00000

  1     6      8.15715    0.01749     11.58733    0.00000
  1     7      8.40793    0.01749     11.91999    0.00000
  1     8      8.95817    0.01749     12.32146    0.00000
  1     9      8.95817    0.01749     12.32146    0.00000

Writing to Fe-bcc.gpw (mode='')