User:   rasmus@AsusN550
Date:   Fri Oct 26 11:13:15 2018
Arch:   x86_64
Pid:    6689
Python: 3.6.3
gpaw:   /home/rasmus/anaconda3/lib/python3.6/site-packages/gpaw
_gpaw:  /home/rasmus/anaconda3/lib/python3.6/site-packages/
        _gpaw.cpython-36m-x86_64-linux-gnu.so
ase:    /home/rasmus/.local/lib/python3.6/site-packages/ase (version 3.16.2)
numpy:  /home/rasmus/.local/lib/python3.6/site-packages/numpy (version 1.15.1)
scipy:  /home/rasmus/.local/lib/python3.6/site-packages/scipy (version 1.1.0)
units:  Angstrom and eV
cores:  1

Input parameters:
  kpts: [7 7 7]
  mode: {ecut: 500.0,
         name: pw}
  nbands: -5
  occupations: {fixmagmom: True,
                name: fermi-dirac,
                width: 0.05}
  spinpol: True
  xc: PBE

System changes: positions, numbers, cell, pbc, initial_charges, initial_magmoms

Initialize ...

Fe-setup:
  name: Iron
  id: 37abbd8d6c3c35915a9b583b742da910
  Z: 26
  valence: 8
  core: 18
  charge: 0.0
  file: /usr/share/gpaw-setups/Fe.PBE.gz
  cutoffs: 1.06(comp), 2.06(filt), 2.67(core), lmax=2
  valence states:
                energy  radius
    4s(2.00)    -5.291   1.164
    4p(0.00)    -1.326   1.058
    3d(6.00)    -7.505   1.058
    *s          21.920   1.164
    *p          25.885   1.058
    *d          19.706   1.058

  Using partial waves for Fe as LCAO basis

Reference energy: -34619.454600

Spin-polarized calculation.
Magnetic moment: 6.000000

Occupation numbers:
  Fixed magnetic moment
  Fermi-Dirac: width=0.0500 eV

Convergence criteria:
  Maximum total energy change: 0.0005 eV / electron
  Maximum integral of absolute density change: 0.0001 electrons
  Maximum integral of absolute eigenstate change: 4e-08 eV^2
  Maximum number of iterations: 333

Symmetries present (total): 48

  ( 1  0  0)  ( 1  0  0)  ( 1  0  0)  ( 1  0  0)  ( 1  0  0)  ( 1  0  0)
  ( 0  1  0)  ( 0  1  0)  ( 0  0  1)  ( 0  0  1)  ( 0  0 -1)  ( 0  0 -1)
  ( 0  0  1)  ( 0  0 -1)  ( 0  1  0)  ( 0 -1  0)  ( 0  1  0)  ( 0 -1  0)

  ( 1  0  0)  ( 1  0  0)  ( 0  1  0)  ( 0  1  0)  ( 0  1  0)  ( 0  1  0)
  ( 0 -1  0)  ( 0 -1  0)  ( 1  0  0)  ( 1  0  0)  ( 0  0  1)  ( 0  0  1)
  ( 0  0  1)  ( 0  0 -1)  ( 0  0  1)  ( 0  0 -1)  ( 1  0  0)  (-1  0  0)

  ( 0  1  0)  ( 0  1  0)  ( 0  1  0)  ( 0  1  0)  ( 0  0  1)  ( 0  0  1)
  ( 0  0 -1)  ( 0  0 -1)  (-1  0  0)  (-1  0  0)  ( 1  0  0)  ( 1  0  0)
  ( 1  0  0)  (-1  0  0)  ( 0  0  1)  ( 0  0 -1)  ( 0  1  0)  ( 0 -1  0)

  ( 0  0  1)  ( 0  0  1)  ( 0  0  1)  ( 0  0  1)  ( 0  0  1)  ( 0  0  1)
  ( 0  1  0)  ( 0  1  0)  ( 0 -1  0)  ( 0 -1  0)  (-1  0  0)  (-1  0  0)
  ( 1  0  0)  (-1  0  0)  ( 1  0  0)  (-1  0  0)  ( 0  1  0)  ( 0 -1  0)

  ( 0  0 -1)  ( 0  0 -1)  ( 0  0 -1)  ( 0  0 -1)  ( 0  0 -1)  ( 0  0 -1)
  ( 1  0  0)  ( 1  0  0)  ( 0  1  0)  ( 0  1  0)  ( 0 -1  0)  ( 0 -1  0)
  ( 0  1  0)  ( 0 -1  0)  ( 1  0  0)  (-1  0  0)  ( 1  0  0)  (-1  0  0)

  ( 0  0 -1)  ( 0  0 -1)  ( 0 -1  0)  ( 0 -1  0)  ( 0 -1  0)  ( 0 -1  0)
  (-1  0  0)  (-1  0  0)  ( 1  0  0)  ( 1  0  0)  ( 0  0  1)  ( 0  0  1)
  ( 0  1  0)  ( 0 -1  0)  ( 0  0  1)  ( 0  0 -1)  ( 1  0  0)  (-1  0  0)

  ( 0 -1  0)  ( 0 -1  0)  ( 0 -1  0)  ( 0 -1  0)  (-1  0  0)  (-1  0  0)
  ( 0  0 -1)  ( 0  0 -1)  (-1  0  0)  (-1  0  0)  ( 0  1  0)  ( 0  1  0)
  ( 1  0  0)  (-1  0  0)  ( 0  0  1)  ( 0  0 -1)  ( 0  0  1)  ( 0  0 -1)

  (-1  0  0)  (-1  0  0)  (-1  0  0)  (-1  0  0)  (-1  0  0)  (-1  0  0)
  ( 0  0  1)  ( 0  0  1)  ( 0  0 -1)  ( 0  0 -1)  ( 0 -1  0)  ( 0 -1  0)
  ( 0  1  0)  ( 0 -1  0)  ( 0  1  0)  ( 0 -1  0)  ( 0  0  1)  ( 0  0 -1)

343 k-points: 7 x 7 x 7 Monkhorst-Pack grid
20 k-points in the irreducible part of the Brillouin zone
       k-points in crystal coordinates                weights
   0:     0.00000000    0.00000000    0.00000000          1/343
   1:     0.14285714    0.00000000    0.00000000          6/343
   2:     0.14285714    0.14285714    0.00000000         12/343
   3:     0.14285714    0.14285714    0.14285714          8/343
   4:     0.28571429    0.00000000    0.00000000          6/343
   5:     0.28571429    0.14285714    0.00000000         24/343
   6:     0.28571429    0.14285714    0.14285714         24/343
   7:     0.28571429    0.28571429    0.00000000         12/343
   8:     0.28571429    0.28571429    0.14285714         24/343
   9:     0.28571429    0.28571429    0.28571429          8/343
          ...
  19:     0.42857143    0.42857143    0.42857143          8/343

Wave functions: Plane wave expansion
  Cutoff energy: 500.000 eV
  Number of coefficients (min, max): 578, 619
  Pulay-stress correction: 0.000000 eV/Ang^3 (de/decut=0.000000)
  Using FFTW library
  ScaLapack parameters: grid=1x1, blocksize=None

Eigensolver
   Davidson(niter=1, smin=None, normalize=True)

Densities:
  Coarse grid: 15*15*15 grid
  Fine grid: 30*30*30 grid
  Total Charge: 0.000000

Density mixing:
  Method: sum
  Backend: pulay
  Linear mixing parameter: 0.05
  Mixing with 5 old densities
  Damping of long wave oscillations: 50

Hamiltonian:
  XC and Coulomb potentials evaluated on a 30*30*30 grid
  Using the PBE Exchange-Correlation functional

Total number of cores used: 1

Number of atoms: 1
Number of atomic orbitals: 9
Number of bands in calculation: 12
Bands to converge: occupied states only
Number of valence electrons: 8

... initialized

Initializing position-dependent things.

Density initialized from atomic densities
Creating initial wave functions:
  9 bands from LCAO basis set
  3 bands from random numbers

 Fe-----*

Positions:
   0 Fe     0.000000    0.000000    0.000000    ( 0.0000,  0.0000,  6.0000)

Unit cell:
           periodic     x           y           z      points  spacing
  1. axis:    yes    2.860000    0.000000    0.000000    15     0.1907
  2. axis:    yes    0.000000    2.860000    0.000000    15     0.1907
  3. axis:    yes    0.000000    0.000000    2.860000    15     0.1907

  Lengths:   2.860000   2.860000   2.860000
  Angles:   90.000000  90.000000  90.000000

Effective grid spacing dv^(1/3) = 0.1907

                     log10-error:    total        iterations:
           time      wfs    density  energy       fermi  poisson  magmom
iter:   1  11:13:17  +4.12   +inf    -9.250663    5               +6.0000
iter:   2  11:13:18  +0.16   +inf    -9.337377    35              +6.0000
iter:   3  11:13:18  -0.67   +inf    -9.359210    35              +6.0000
iter:   4  11:13:19  -0.22  -0.78    -8.105587    37              +6.0000
iter:   5  11:13:20  +1.54  -0.82    -2.429018    34              +6.0000
iter:   6  11:13:21  +0.68  -1.37    -2.209487    36              +6.0000
iter:   7  11:13:23  -1.17  -1.57    -2.206693    32              +6.0000
iter:   8  11:13:24  -1.27  -1.59    -2.179776    35              +6.0000
iter:   9  11:13:25  -0.49  -1.62    -2.219437    34              +6.0000
iter:  10  11:13:26  -0.82  -1.93    -2.212397    33              +6.0000
iter:  11  11:13:27  -2.05  -2.49    -2.215317    33              +6.0000
iter:  12  11:13:29  -2.37  -2.39    -2.215778    34              +6.0000
iter:  13  11:13:30  -2.60  -2.26    -2.216795    32              +6.0000
iter:  14  11:13:31  -2.65  -2.39    -2.217864    33              +6.0000
iter:  15  11:13:32  -2.55  -2.66    -2.219236    35              +6.0000
iter:  16  11:13:33  -2.64  -2.52    -2.219453    34              +6.0000
iter:  17  11:13:34  -3.64  -2.66    -2.219423    33              +6.0000
iter:  18  11:13:35  -3.12  -2.71    -2.218803    34              +6.0000
iter:  19  11:13:35  -3.64  -2.62    -2.219074    32              +6.0000
iter:  20  11:13:36  -3.29  -2.83    -2.219356    33              +6.0000
iter:  21  11:13:37  -4.71  -3.32    -2.219378    34              +6.0000
iter:  22  11:13:38  -3.80  -3.38    -2.219439    33              +6.0000
iter:  23  11:13:39  -4.54  -3.22    -2.219404    33              +6.0000
iter:  24  11:13:40  -5.03  -3.37    -2.219429    34              +6.0000
iter:  25  11:13:41  -4.44  -3.17    -2.219390    32              +6.0000
iter:  26  11:13:42  -5.46  -3.57    -2.219376    34              +6.0000
iter:  27  11:13:43  -4.27  -3.65    -2.219350    34              +6.0000
iter:  28  11:13:44  -6.01  -3.99    -2.219348    32              +6.0000
iter:  29  11:13:45  -5.34  -3.80    -2.219355    33              +6.0000
iter:  30  11:13:46  -5.94  -4.40    -2.219359    35              +6.0000
iter:  31  11:13:47  -6.89  -4.71    -2.219358    34              +6.0000
iter:  32  11:13:48  -6.35  -4.68    -2.219359    33              +6.0000
iter:  33  11:13:49  -6.38  -4.55    -2.219358    35              +6.0000
iter:  34  11:13:50  -6.66  -4.67    -2.219359    34              +6.0000
iter:  35  11:13:51  -7.06  -4.51    -2.219359    33              +6.0000
iter:  36  11:13:52  -7.52  -4.61    -2.219358    34              +6.0000

Converged after 36 iterations.

Dipole moment: (0.000000, 0.000000, -0.000000) |e|*Ang

Total magnetic moment: (0.000000, 0.000000, 6.000122)
Local magnetic moments:
   0 Fe ( 0.000000,  0.000000,  4.600167)

Energy contributions relative to reference atoms: (reference = -34619.454600)

Kinetic:         +5.612040
Potential:       -0.161272
External:        +0.000000
XC:              -7.677331
Entropy (-ST):   -0.019659
Local:           +0.017034
Free energy:     -2.229187
Extrapolated:    -2.219358

Spin contamination: 0.000000 electrons
Fermi levels: 8.71430, 1.86289

Warning: Showing only first 2 kpts
                      Up                     Down
 Kpt  Band  Eigenvalues  Occupancy  Eigenvalues  Occupancy
  0     2     -2.38570    0.00292      1.45390    0.00291
  0     3     -1.38306    0.00292      3.58160    0.00000
  0     4     -1.38306    0.00292      3.58161    0.00000
  0     5     -1.38306    0.00292      3.58161    0.00000

  1     2     -2.23239    0.01749      1.60438    0.01739
  1     3     -1.45815    0.01749      3.48356    0.00000
  1     4     -1.45815    0.01749      3.48356    0.00000
  1     5     -1.37643    0.01749      3.58966    0.00000

Writing to Fe-bcc.gpw (mode='')