User:   rasmus@AsusN550
Date:   Mon Nov 12 15:02:55 2018
Arch:   x86_64
Pid:    8619
Python: 3.6.3
gpaw:   /home/rasmus/anaconda3/lib/python3.6/site-packages/gpaw
_gpaw:  /home/rasmus/anaconda3/lib/python3.6/site-packages/
        _gpaw.cpython-36m-x86_64-linux-gnu.so
ase:    /home/rasmus/.local/lib/python3.6/site-packages/ase (version 3.16.2)
numpy:  /home/rasmus/.local/lib/python3.6/site-packages/numpy (version 1.15.1)
scipy:  /home/rasmus/.local/lib/python3.6/site-packages/scipy (version 1.1.0)
units:  Angstrom and eV
cores:  1

Input parameters:
  kpts: [5 5 5]
  mode: {ecut: 500.0,
         name: pw}
  nbands: -5
  occupations: {fixmagmom: True,
                name: fermi-dirac,
                width: 0.1}
  spinpol: True
  xc: PBE

System changes: positions, numbers, cell, pbc, initial_charges, initial_magmoms

Initialize ...

Fe-setup:
  name: Iron
  id: 37abbd8d6c3c35915a9b583b742da910
  Z: 26
  valence: 8
  core: 18
  charge: 0.0
  file: /usr/share/gpaw-setups/Fe.PBE.gz
  cutoffs: 1.06(comp), 2.06(filt), 2.67(core), lmax=2
  valence states:
                energy  radius
    4s(2.00)    -5.291   1.164
    4p(0.00)    -1.326   1.058
    3d(6.00)    -7.505   1.058
    *s          21.920   1.164
    *p          25.885   1.058
    *d          19.706   1.058

  Using partial waves for Fe as LCAO basis

Reference energy: -69238.909200

Spin-polarized calculation.
Magnetic moment: 4.400000

Occupation numbers:
  Fixed magnetic moment
  Fermi-Dirac: width=0.1000 eV

Convergence criteria:
  Maximum total energy change: 0.0005 eV / electron
  Maximum integral of absolute density change: 0.0001 electrons
  Maximum integral of absolute eigenstate change: 4e-08 eV^2
  Maximum number of iterations: 333

Symmetries present (total): 4

  ( 1  0  0)  ( 1  0  0)  (-1  0  0)  (-1  0  0)
  ( 0  1  0)  ( 0  0  1)  ( 0  0 -1)  ( 0 -1  0)
  ( 0  0  1)  ( 0  1  0)  ( 0 -1  0)  ( 0  0 -1)

125 k-points: 5 x 5 x 5 Monkhorst-Pack grid
39 k-points in the irreducible part of the Brillouin zone
       k-points in crystal coordinates                weights
   0:     0.00000000    0.00000000    0.00000000          1/125
   1:     0.00000000    0.20000000   -0.20000000          2/125
   2:     0.00000000    0.20000000    0.00000000          4/125
   3:     0.00000000    0.20000000    0.20000000          2/125
   4:     0.00000000    0.40000000   -0.40000000          2/125
   5:     0.00000000    0.40000000   -0.20000000          4/125
   6:     0.00000000    0.40000000    0.00000000          4/125
   7:     0.00000000    0.40000000    0.20000000          4/125
   8:     0.00000000    0.40000000    0.40000000          2/125
   9:     0.20000000   -0.40000000   -0.40000000          2/125
          ...
  38:     0.40000000    0.40000000    0.40000000          2/125

Wave functions: Plane wave expansion
  Cutoff energy: 500.000 eV
  Number of coefficients (min, max): 584, 615
  Pulay-stress correction: 0.000000 eV/Ang^3 (de/decut=0.000000)
  Using FFTW library
  ScaLapack parameters: grid=1x1, blocksize=None

Eigensolver
   Davidson(niter=1, smin=None, normalize=True)

Densities:
  Coarse grid: 21*10*10 grid
  Fine grid: 42*20*20 grid
  Total Charge: 0.000000

Density mixing:
  Method: sum
  Backend: pulay
  Linear mixing parameter: 0.05
  Mixing with 5 old densities
  Damping of long wave oscillations: 50

Hamiltonian:
  XC and Coulomb potentials evaluated on a 42*20*20 grid
  Using the PBE Exchange-Correlation functional

Total number of cores used: 1

Number of atoms: 2
Number of atomic orbitals: 18
Number of bands in calculation: 15
Bands to converge: occupied states only
Number of valence electrons: 16

... initialized

Initializing position-dependent things.

Density initialized from atomic densities
Creating initial wave functions:
  15 bands from LCAO basis set

        Fe

[...]

Positions:
   0 Fe     0.000000    0.000000    0.000000    ( 0.0000,  0.0000,  2.2000)
   1 Fe    -1.430000    1.430000    1.430000    ( 0.0000,  0.0000,  2.2000)

Unit cell:
           periodic     x           y           z      points  spacing
  1. axis:    yes   -2.860000    2.860000    2.860000    21     0.1926
  2. axis:    yes    1.430000   -1.430000    1.430000    10     0.2022
  3. axis:    yes    1.430000    1.430000   -1.430000    10     0.2022

  Lengths:   4.953665   2.476833   2.476833
  Angles:  109.471221 109.471221 109.471221

Effective grid spacing dv^(1/3) = 0.2233

                     log10-error:    total        iterations:
           time      wfs    density  energy       fermi  poisson  magmom
iter:   1  15:03:01  +1.88   +inf   -17.563429    28              +4.4000
iter:   2  15:03:02  +0.36   +inf   -17.708293    29              +4.4000
iter:   3  15:03:04  -0.65   +inf   -17.737186    29              +4.4000
iter:   4  15:03:06  -0.68  -1.45   -17.805752    30              +4.4000
iter:   5  15:03:08  -0.57  -1.49   -17.794639    31              +4.4000
iter:   6  15:03:11  -1.28  -1.75   -17.862800    30              +4.4000
iter:   7  15:03:12  -0.97  -1.91   -17.939078    3               +4.4000
iter:   8  15:03:15  -1.86  -2.42   -17.944234    5               +4.4000
iter:   9  15:03:17  -2.12  -2.86   -17.946252    5               +4.4000
iter:  10  15:03:19  -1.95  -2.54   -17.945528    3               +4.4000
iter:  11  15:03:22  -2.93  -2.95   -17.946794    4               +4.4000
iter:  12  15:03:24  -2.78  -2.96   -17.946658    4               +4.4000
iter:  13  15:03:26  -3.79  -3.67   -17.946696    4               +4.4000
iter:  14  15:03:29  -3.95  -3.63   -17.946740    4               +4.4000
iter:  15  15:03:31  -4.26  -3.42   -17.946784    4               +4.4000
iter:  16  15:03:33  -4.17  -3.33   -17.946725    4               +4.4000
iter:  17  15:03:35  -4.65  -3.41   -17.946691    4               +4.4000
iter:  18  15:03:38  -5.10  -3.69   -17.946675    4               +4.4000
iter:  19  15:03:40  -5.13  -3.60   -17.946677    4               +4.4000
iter:  20  15:03:43  -4.35  -3.55   -17.946692    4               +4.4000
iter:  21  15:03:45  -5.71  -3.96   -17.946696    4               +4.4000
iter:  22  15:03:47  -6.15  -3.98   -17.946697    4               +4.4000
iter:  23  15:03:49  -5.66  -4.07   -17.946697    4               +4.4000
iter:  24  15:03:51  -5.98  -4.03   -17.946692    4               +4.4000
iter:  25  15:03:53  -6.05  -4.34   -17.946692    4               +4.4000
iter:  26  15:03:55  -6.27  -4.39   -17.946698    4               +4.4000
iter:  27  15:03:57  -6.93  -4.56   -17.946699    4               +4.4000
iter:  28  15:03:59  -7.32  -4.73   -17.946699    4               +4.4000
iter:  29  15:04:02  -7.21  -4.92   -17.946699    4               +4.4000
iter:  30  15:04:04  -7.41  -5.00   -17.946700    4               +4.4000

Converged after 30 iterations.

Dipole moment: (0.000000, -0.000000, -0.000000) |e|*Ang

Total magnetic moment: (0.000000, 0.000000, 4.400214)
Local magnetic moments:
   0 Fe ( 0.000000,  0.000000,  2.274538)
   1 Fe ( 0.000000,  0.000000,  2.274536)

Energy contributions relative to reference atoms: (reference = -69238.909200)

Kinetic:        +12.885381
Potential:      -10.930757
External:        +0.000000
XC:             -20.052976
Entropy (-ST):   -0.076294
Local:           +0.189800
Free energy:    -17.984847
Extrapolated:   -17.946700

Spin contamination: 0.119484 electrons
Fermi levels: 9.73083, 9.59792

Warning: Showing only first 2 kpts
                      Up                     Down
 Kpt  Band  Eigenvalues  Occupancy  Eigenvalues  Occupancy
  0     6      8.61189    0.00800     10.19368    0.00002
  0     7      8.61240    0.00800     11.26051    0.00000
  0     8      8.68302    0.00800     11.38611    0.00000
  0     9      8.79384    0.00800     11.40015    0.00000

  1     6      8.28221    0.01600     10.25114    0.00002
  1     7      8.30164    0.01600     10.47381    0.00000
  1     8      8.43023    0.01600     11.07124    0.00000
  1     9      8.65536    0.01600     11.43729    0.00000

Forces in eV/Ang:
  0 Fe    0.00000    0.00000    0.00000
  1 Fe    0.00000    0.00000    0.00000

Stress tensor:
     0.022389     0.000099     0.000099
     0.000099     0.030752     0.007122
     0.000099     0.007122     0.030752
System changes: positions, cell

[...]

  ( 1  0  0)  ( 1  0  0)
  ( 0  1  0)  ( 0  0  1)
  ( 0  0  1)  ( 0  1  0)

[...]

System changes: positions, cell

[...]

System changes: positions, cell

[...]

Stress tensor:
    -0.003474    -0.000004    -0.000004
    -0.000004    -0.001092     0.000131
    -0.000004     0.000131    -0.001092
System changes: positions, cell

Initialize ...

Fe-setup:
  name: Iron
  id: 37abbd8d6c3c35915a9b583b742da910
  Z: 26
  valence: 8
  core: 18
  charge: 0.0
  file: /usr/share/gpaw-setups/Fe.PBE.gz
  cutoffs: 1.06(comp), 2.06(filt), 2.67(core), lmax=2
  valence states:
                energy  radius
    4s(2.00)    -5.291   1.164
    4p(0.00)    -1.326   1.058
    3d(6.00)    -7.505   1.058
    *s          21.920   1.164
    *p          25.885   1.058
    *d          19.706   1.058

  Using partial waves for Fe as LCAO basis

Reference energy: -69238.909200

Spin-polarized calculation.
Magnetic moment: 4.400000

Occupation numbers:
  Fixed magnetic moment
  Fermi-Dirac: width=0.1000 eV

Convergence criteria:
  Maximum total energy change: 0.0005 eV / electron
  Maximum integral of absolute density change: 0.0001 electrons
  Maximum integral of absolute eigenstate change: 4e-08 eV^2
  Maximum number of iterations: 333

Symmetries present (total): 4

  ( 1  0  0)  ( 1  0  0)  (-1  0  0)  (-1  0  0)
  ( 0  1  0)  ( 0  0  1)  ( 0  0 -1)  ( 0 -1  0)
  ( 0  0  1)  ( 0  1  0)  ( 0 -1  0)  ( 0  0 -1)

125 k-points: 5 x 5 x 5 Monkhorst-Pack grid
39 k-points in the irreducible part of the Brillouin zone
       k-points in crystal coordinates                weights
   0:     0.00000000    0.00000000    0.00000000          1/125
   1:     0.00000000    0.20000000   -0.20000000          2/125
   2:     0.00000000    0.20000000    0.00000000          4/125
   3:     0.00000000    0.20000000    0.20000000          2/125
   4:     0.00000000    0.40000000   -0.40000000          2/125
   5:     0.00000000    0.40000000   -0.20000000          4/125
   6:     0.00000000    0.40000000    0.00000000          4/125
   7:     0.00000000    0.40000000    0.20000000          4/125
   8:     0.00000000    0.40000000    0.40000000          2/125
   9:     0.20000000   -0.40000000   -0.40000000          2/125
          ...
  38:     0.40000000    0.40000000    0.40000000          2/125

Wave functions: Plane wave expansion
  Cutoff energy: 500.000 eV
  Number of coefficients (min, max): 566, 605
  Pulay-stress correction: 0.000000 eV/Ang^3 (de/decut=0.000000)
  Using FFTW library
  ScaLapack parameters: grid=1x1, blocksize=None

Eigensolver
   Davidson(niter=1, smin=None, normalize=True)

Densities:
  Coarse grid: 21*10*10 grid
  Fine grid: 42*20*20 grid
  Total Charge: 0.000000

Density mixing:
  Method: sum
  Backend: pulay
  Linear mixing parameter: 0.05
  Mixing with 5 old densities
  Damping of long wave oscillations: 50

Hamiltonian:
  XC and Coulomb potentials evaluated on a 42*20*20 grid
  Using the PBE Exchange-Correlation functional

Total number of cores used: 1

Number of atoms: 2
Number of atomic orbitals: 18
Number of bands in calculation: 15
Bands to converge: occupied states only
Number of valence electrons: 16

... initialized

Initializing position-dependent things.

Density initialized from atomic densities
Creating initial wave functions:
  15 bands from LCAO basis set

[...]

          Fe

Positions:
   0 Fe     0.000000   -0.000000   -0.000000    ( 0.0000,  0.0000,  2.2000)
   1 Fe    -1.429155    1.405741    1.405741    ( 0.0000,  0.0000,  2.2000)

Unit cell:
           periodic     x           y           z      points  spacing
  1. axis:    yes   -2.858310    2.811483    2.811483    21     0.1893
  2. axis:    yes    1.428928   -1.424215    1.423988    10     0.2011
  3. axis:    yes    1.428928    1.423988   -1.424215    10     0.2011

  Lengths:   4.896816   2.469406   2.469406
  Angles:  109.288344 109.743917 109.743917

Effective grid spacing dv^(1/3) = 0.2217

                     log10-error:    total        iterations:
           time      wfs    density  energy       fermi  poisson  magmom
iter:   1  15:22:07  +1.90   +inf   -17.573873    28              +4.4000
iter:   2  15:22:09  +0.37   +inf   -17.722660    29              +4.4000
iter:   3  15:22:12  -0.63   +inf   -17.752386    27              +4.4000
iter:   4  15:22:14  -0.66  -1.44   -17.816908    31              +4.4000
iter:   5  15:22:17  -0.53  -1.49   -17.800384    30              +4.4000
iter:   6  15:22:19  -1.19  -1.75   -17.872306    29              +4.4000
iter:   7  15:22:22  -0.92  -1.91   -17.943458    3               +4.4000
iter:   8  15:22:24  -1.88  -2.41   -17.949604    5               +4.4000
iter:   9  15:22:26  -2.39  -2.87   -17.950816    5               +4.4000
iter:  10  15:22:28  -2.61  -2.75   -17.951156    4               +4.4000
iter:  11  15:22:30  -3.00  -2.72   -17.951810    4               +4.4000
iter:  12  15:22:33  -3.34  -3.00   -17.951993    4               +4.4000
iter:  13  15:22:35  -3.77  -3.46   -17.952027    4               +4.4000
iter:  14  15:22:37  -3.84  -3.48   -17.951829    5               +4.4000
iter:  15  15:22:39  -4.23  -3.22   -17.952009    4               +4.4000
iter:  16  15:22:41  -3.59  -3.33   -17.951899    4               +4.4000
iter:  17  15:22:43  -3.60  -3.14   -17.951951    5               +4.4000
iter:  18  15:22:45  -5.10  -3.76   -17.951975    4               +4.4000
iter:  19  15:22:48  -4.83  -4.01   -17.951972    4               +4.4000
iter:  20  15:22:50  -5.64  -4.02   -17.951976    4               +4.4000
iter:  21  15:22:53  -5.67  -4.08   -17.951979    4               +4.4000
iter:  22  15:22:55  -5.01  -4.11   -17.951985    4               +4.4000
iter:  23  15:22:57  -5.35  -3.93   -17.951975    4               +4.4000
iter:  24  15:22:59  -5.74  -4.29   -17.951971    4               +4.4000
iter:  25  15:23:01  -5.87  -4.25   -17.951978    4               +4.4000
iter:  26  15:23:03  -6.48  -4.56   -17.951984    4               +4.4000
iter:  27  15:23:05  -6.54  -4.92   -17.951986    4               +4.4000
iter:  28  15:23:08  -6.94  -5.18   -17.951987    4               +4.4000
iter:  29  15:23:11  -7.24  -5.29   -17.951987    4               +4.4000
iter:  30  15:23:13  -7.40  -5.38   -17.951987    4               +4.4000

Converged after 30 iterations.

Dipole moment: (0.000000, 0.000000, 0.000000) |e|*Ang

Total magnetic moment: (0.000000, 0.000000, 4.400068)
Local magnetic moments:
   0 Fe ( 0.000000,  0.000000,  2.269398)
   1 Fe ( 0.000000,  0.000000,  2.269437)

Energy contributions relative to reference atoms: (reference = -69238.909200)

Kinetic:        +15.352848
Potential:      -12.923822
External:        +0.000000
XC:             -20.540052
Entropy (-ST):   -0.074267
Local:           +0.196172
Free energy:    -17.989121
Extrapolated:   -17.951987

Spin contamination: 0.109821 electrons
Fermi levels: 10.07706, 9.87759

Warning: Showing only first 2 kpts
                      Up                     Down
 Kpt  Band  Eigenvalues  Occupancy  Eigenvalues  Occupancy
  0     6      8.91024    0.00800     10.69106    0.00000
  0     7      8.96258    0.00800     11.59448    0.00000
  0     8      9.02749    0.00800     11.65981    0.00000
  0     9      9.11415    0.00800     11.75518    0.00000

  1     6      8.59254    0.01600     10.58868    0.00001
  1     7      8.63287    0.01600     10.79889    0.00000
  1     8      8.80966    0.01600     11.46705    0.00000
  1     9      8.98342    0.01600     11.74653    0.00000

Forces in eV/Ang:
  0 Fe    0.00000    0.00000    0.00000
  1 Fe    0.00000   -0.00000   -0.00000

Stress tensor:
    -0.002932     0.000003     0.000003
     0.000003    -0.000829     0.000122
     0.000003     0.000122    -0.000829
Writing to Fe.gpw (mode='')

Date: Mon Nov 12 15:23:17 2018