User:   rasmus@AsusN550
Date:   Thu Oct 25 10:06:48 2018
Arch:   x86_64
Pid:    6464
Python: 3.6.3
gpaw:   /home/rasmus/anaconda3/lib/python3.6/site-packages/gpaw
_gpaw:  /home/rasmus/anaconda3/lib/python3.6/site-packages/
        _gpaw.cpython-36m-x86_64-linux-gnu.so
ase:    /home/rasmus/.local/lib/python3.6/site-packages/ase (version 3.16.2)
numpy:  /home/rasmus/.local/lib/python3.6/site-packages/numpy (version 1.15.1)
scipy:  /home/rasmus/.local/lib/python3.6/site-packages/scipy (version 1.1.0)
units:  Angstrom and eV
cores:  1

Input parameters:
  kpts: [6 6 6]
  mode: {ecut: 400.0,
         name: pw}
  nbands: -10
  occupations: {name: fermi-dirac,
                width: 0.1}
  spinpol: True
  xc: PBE

System changes: positions, numbers, cell, pbc, initial_charges, initial_magmoms

Initialize ...

Fe-setup:
  name: Iron
  id: 37abbd8d6c3c35915a9b583b742da910
  Z: 26
  valence: 8
  core: 18
  charge: 0.0
  file: /usr/share/gpaw-setups/Fe.PBE.gz
  cutoffs: 1.06(comp), 2.06(filt), 2.67(core), lmax=2
  valence states:
                energy  radius
    4s(2.00)    -5.291   1.164
    4p(0.00)    -1.326   1.058
    3d(6.00)    -7.505   1.058
    *s          21.920   1.164
    *p          25.885   1.058
    *d          19.706   1.058

  Using partial waves for Fe as LCAO basis

Reference energy: -69238.909200

Spin-polarized calculation.
Magnetic moment: 4.400000

Occupation numbers:
  Fermi-Dirac: width=0.1000 eV

Convergence criteria:
  Maximum total energy change: 0.0005 eV / electron
  Maximum integral of absolute density change: 0.0001 electrons
  Maximum integral of absolute eigenstate change: 4e-08 eV^2
  Maximum number of iterations: 333

Symmetries present (total): 48

  ( 1  0  0)  ( 1  0  0)  ( 1  0  0)  ( 1  0  0)  ( 1  0  0)  ( 1  0  0)
  ( 0  1  0)  ( 0  1  0)  ( 0  0  1)  ( 0  0  1)  ( 0  0 -1)  ( 0  0 -1)
  ( 0  0  1)  ( 0  0 -1)  ( 0  1  0)  ( 0 -1  0)  ( 0  1  0)  ( 0 -1  0)

  ( 1  0  0)  ( 1  0  0)  ( 0  1  0)  ( 0  1  0)  ( 0  1  0)  ( 0  1  0)
  ( 0 -1  0)  ( 0 -1  0)  ( 1  0  0)  ( 1  0  0)  ( 0  0  1)  ( 0  0  1)
  ( 0  0  1)  ( 0  0 -1)  ( 0  0  1)  ( 0  0 -1)  ( 1  0  0)  (-1  0  0)

  ( 0  1  0)  ( 0  1  0)  ( 0  1  0)  ( 0  1  0)  ( 0  0  1)  ( 0  0  1)
  ( 0  0 -1)  ( 0  0 -1)  (-1  0  0)  (-1  0  0)  ( 1  0  0)  ( 1  0  0)
  ( 1  0  0)  (-1  0  0)  ( 0  0  1)  ( 0  0 -1)  ( 0  1  0)  ( 0 -1  0)

  ( 0  0  1)  ( 0  0  1)  ( 0  0  1)  ( 0  0  1)  ( 0  0  1)  ( 0  0  1)
  ( 0  1  0)  ( 0  1  0)  ( 0 -1  0)  ( 0 -1  0)  (-1  0  0)  (-1  0  0)
  ( 1  0  0)  (-1  0  0)  ( 1  0  0)  (-1  0  0)  ( 0  1  0)  ( 0 -1  0)

  ( 0  0 -1)  ( 0  0 -1)  ( 0  0 -1)  ( 0  0 -1)  ( 0  0 -1)  ( 0  0 -1)
  ( 1  0  0)  ( 1  0  0)  ( 0  1  0)  ( 0  1  0)  ( 0 -1  0)  ( 0 -1  0)
  ( 0  1  0)  ( 0 -1  0)  ( 1  0  0)  (-1  0  0)  ( 1  0  0)  (-1  0  0)

  ( 0  0 -1)  ( 0  0 -1)  ( 0 -1  0)  ( 0 -1  0)  ( 0 -1  0)  ( 0 -1  0)
  (-1  0  0)  (-1  0  0)  ( 1  0  0)  ( 1  0  0)  ( 0  0  1)  ( 0  0  1)
  ( 0  1  0)  ( 0 -1  0)  ( 0  0  1)  ( 0  0 -1)  ( 1  0  0)  (-1  0  0)

  ( 0 -1  0)  ( 0 -1  0)  ( 0 -1  0)  ( 0 -1  0)  (-1  0  0)  (-1  0  0)
  ( 0  0 -1)  ( 0  0 -1)  (-1  0  0)  (-1  0  0)  ( 0  1  0)  ( 0  1  0)
  ( 1  0  0)  (-1  0  0)  ( 0  0  1)  ( 0  0 -1)  ( 0  0  1)  ( 0  0 -1)

  (-1  0  0)  (-1  0  0)  (-1  0  0)  (-1  0  0)  (-1  0  0)  (-1  0  0)
  ( 0  0  1)  ( 0  0  1)  ( 0  0 -1)  ( 0  0 -1)  ( 0 -1  0)  ( 0 -1  0)
  ( 0  1  0)  ( 0 -1  0)  ( 0  1  0)  ( 0 -1  0)  ( 0  0  1)  ( 0  0 -1)

216 k-points: 6 x 6 x 6 Monkhorst-Pack grid
10 k-points in the irreducible part of the Brillouin zone
       k-points in crystal coordinates                weights
   0:     0.08333333    0.08333333    0.08333333          8/216
   1:     0.25000000    0.08333333    0.08333333         24/216
   2:     0.25000000    0.25000000    0.08333333         24/216
   3:     0.25000000    0.25000000    0.25000000          8/216
   4:     0.41666667    0.08333333    0.08333333         24/216
   5:     0.41666667    0.25000000    0.08333333         48/216
   6:     0.41666667    0.25000000    0.25000000         24/216
   7:     0.41666667    0.41666667    0.08333333         24/216
   8:     0.41666667    0.41666667    0.25000000         24/216
   9:     0.41666667    0.41666667    0.41666667          8/216

Wave functions: Plane wave expansion
  Cutoff energy: 400.000 eV
  Number of coefficients (min, max): 420, 437
  Pulay-stress correction: 0.000000 eV/Ang^3 (de/decut=0.000000)
  Using FFTW library
  ScaLapack parameters: grid=1x1, blocksize=None

Eigensolver
   Davidson(niter=1, smin=None, normalize=True)

Densities:
  Coarse grid: 14*14*14 grid
  Fine grid: 28*28*28 grid
  Total Charge: 0.000000

Density mixing:
  Method: sum
  Backend: pulay
  Linear mixing parameter: 0.05
  Mixing with 5 old densities
  Damping of long wave oscillations: 50

Hamiltonian:
  XC and Coulomb potentials evaluated on a 28*28*28 grid
  Using the PBE Exchange-Correlation functional

Total number of cores used: 1

Number of atoms: 2
Number of atomic orbitals: 18
Number of bands in calculation: 20
Bands to converge: occupied states only
Number of valence electrons: 16

... initialized

Initializing position-dependent things.

Density initialized from atomic densities
Creating initial wave functions:
  18 bands from LCAO basis set
  2 bands from random numbers

 | |  Fe  |
 Fe-----*

Positions:
   0 Fe     0.000000    0.000000    0.000000    ( 0.0000,  0.0000,  2.2000)
   1 Fe     1.430000    1.430000    1.430000    ( 0.0000,  0.0000,  2.2000)

Unit cell:
           periodic     x           y           z      points  spacing
  1. axis:    yes    2.860000    0.000000    0.000000    14     0.2043
  2. axis:    yes    0.000000    2.860000    0.000000    14     0.2043
  3. axis:    yes    0.000000    0.000000    2.860000    14     0.2043

  Lengths:   2.860000   2.860000   2.860000
  Angles:   90.000000  90.000000  90.000000

Effective grid spacing dv^(1/3) = 0.2043

                     log10-error:    total        iterations:
           time      wfs    density  energy       fermi  poisson  magmom
iter:   1  10:06:52  +3.55   +inf   -17.466874    2               +4.2514
iter:   2  10:06:53  +0.23   +inf   -17.592781    2               +4.2437
iter:   3  10:06:54  -0.94   +inf   -17.609130    2               +4.2430
iter:   4  10:06:55  -0.99  -1.43   -17.677588    3               +4.2053
iter:   5  10:06:57  -0.59  -1.48   -17.656902    32              +4.2651
iter:   6  10:06:58  -2.00  -1.82   -17.710016    3               +4.2871
iter:   7  10:07:00  -1.48  -1.94   -17.784286    3               +4.3306
iter:   8  10:07:01  -2.04  -2.73   -17.786389    3               +4.3256
iter:   9  10:07:02  -3.00  -3.16   -17.786696    2               +4.3254
iter:  10  10:07:04  -2.98  -3.14   -17.786563    3               +4.3291
iter:  11  10:07:05  -3.17  -2.85   -17.786512    3               +4.3225
iter:  12  10:07:06  -3.38  -2.94   -17.786927    3               +4.3239
iter:  13  10:07:08  -3.29  -2.65   -17.787200    3               +4.3359
iter:  14  10:07:09  -3.63  -2.90   -17.787106    3               +4.3415
iter:  15  10:07:11  -4.55  -3.72   -17.787167    2               +4.3393
iter:  16  10:07:13  -4.13  -3.47   -17.786981    2               +4.3469
iter:  17  10:07:14  -4.96  -4.23   -17.786987    2               +4.3468
iter:  18  10:07:15  -5.18  -4.20   -17.786922    2               +4.3500
iter:  19  10:07:17  -5.36  -4.10   -17.786926    2               +4.3500
iter:  20  10:07:18  -5.86  -4.11   -17.786953    2               +4.3488
iter:  21  10:07:19  -6.53  -4.06   -17.786952    2               +4.3489
iter:  22  10:07:21  -5.55  -4.08   -17.786959    2               +4.3479
iter:  23  10:07:22  -6.85  -4.20   -17.786957    2               +4.3480
iter:  24  10:07:24  -6.95  -4.26   -17.786957    2               +4.3480
iter:  25  10:07:25  -6.96  -4.39   -17.786949    2               +4.3485
iter:  26  10:07:26  -6.51  -4.45   -17.786931    1               +4.3493
iter:  27  10:07:27  -6.75  -4.53   -17.786927    2               +4.3495
iter:  28  10:07:28  -7.62  -4.60   -17.786928    2               +4.3495

Converged after 28 iterations.

Dipole moment: (0.000000, 0.000000, -0.000000) |e|*Ang

Total magnetic moment: (0.000000, 0.000000, 4.346699)
Local magnetic moments:
   0 Fe ( 0.000000,  0.000000,  2.254398)
   1 Fe ( 0.000000,  0.000000,  2.254355)

Energy contributions relative to reference atoms: (reference = -69238.909200)

Kinetic:        +10.065786
Potential:       -8.737322
External:        +0.000000
XC:             -19.671026
Entropy (-ST):   -0.079749
Local:           +0.595508
Free energy:    -17.826803
Extrapolated:   -17.786928

Spin contamination: 0.139447 electrons
Fermi level: 9.67676

Warning: Showing only first 2 kpts
                      Up                     Down
 Kpt  Band  Eigenvalues  Occupancy  Eigenvalues  Occupancy
  0     6      8.56286    0.03704     11.22824    0.00000
  0     7      8.56286    0.03704     11.30617    0.00000
  0     8      9.20582    0.03671     11.30617    0.00000
  0     9      9.69681    0.01667     11.84349    0.00000

  1     6      8.22421    0.11111     10.26275    0.00032
  1     7      8.38972    0.11111     10.81264    0.00000
  1     8      8.76582    0.11110     10.99034    0.00000
  1     9      8.99818    0.11099     11.55096    0.00000

Forces in eV/Ang:
  0 Fe   -0.00000   -0.00000   -0.00000
  1 Fe    0.00000   -0.00000    0.00000

Stress tensor:
     0.062988     0.000000     0.000000
     0.000000     0.062988     0.000000
     0.000000     0.000000     0.062988
System changes: positions, cell

[...]

216 k-points: 6 x 6 x 6 Monkhorst-Pack grid
28 k-points in the irreducible part of the Brillouin zone
       k-points in crystal coordinates                weights
   0:     0.08333333    0.08333333   -0.08333333          6/216
   1:     0.08333333    0.08333333    0.08333333          2/216
   2:     0.25000000   -0.08333333   -0.08333333          6/216
   3:     0.25000000    0.08333333   -0.25000000         12/216
   4:     0.25000000    0.08333333   -0.08333333         12/216
   5:     0.25000000    0.08333333    0.08333333          6/216
   6:     0.25000000    0.25000000   -0.25000000          6/216
   7:     0.25000000    0.25000000   -0.08333333          6/216
   8:     0.25000000    0.25000000    0.08333333          6/216
   9:     0.25000000    0.25000000    0.25000000          2/216
          ...
  27:     0.41666667    0.41666667    0.41666667          2/216

[...]

System changes: positions, cell

[...]

 | .-Fe---.
 Fe-----*

[...]

 | .-Fe---.
 Fe-----*

[...]

 | | Fe   |
 Fe-----*

[...]

           Fe

[...]

Forces in eV/Ang:
  0 Fe   -0.00000   -0.00000   -0.00000
  1 Fe   -0.00000    0.00000    0.00000

Stress tensor:
     0.062275     0.000000     0.000000
     0.000000     0.062275     0.000000
     0.000000     0.000000     0.062275
System changes: positions, cell

[...]

                     log10-error:    total        iterations:
           time      wfs    density  energy       fermi  poisson  magmom
iter:   1  10:46:18  +3.54   +inf   -17.465965    30              +4.2487
iter:   2  10:46:19  +0.22   +inf   -17.589770    2               +4.2420
iter:   3  10:46:19  -0.95   +inf   -17.605843    2               +4.2413
iter:   4  10:46:20  -0.99  -1.43   -17.674146    3               +4.2037
iter:   5  10:46:21  -0.59  -1.48   -17.653229    31              +4.2634
iter:   6  10:46:22  -2.00  -1.82   -17.706437    3               +4.2851
iter:   7  10:46:23  -1.48  -1.94   -17.780284    3               +4.3279
iter:   8  10:46:24  -2.04  -2.73   -17.782456    3               +4.3227
iter:   9  10:46:25  -2.98  -3.16   -17.782773    2               +4.3226
iter:  10  10:46:26  -2.96  -3.14   -17.782639    3               +4.3263
iter:  11  10:46:27  -3.29  -2.85   -17.782698    3               +4.3200
iter:  12  10:46:28  -2.65  -3.04   -17.782679    3               +4.3482
iter:  13  10:46:29  -2.93  -2.75   -17.783215    3               +4.3368
iter:  14  10:46:30  -4.93  -3.67   -17.783212    2               +4.3370
iter:  15  10:46:31  -4.89  -3.69   -17.783168    2               +4.3380
iter:  16  10:46:33  -5.95  -3.64   -17.783172    2               +4.3380
iter:  17  10:46:34  -4.65  -3.66   -17.783185    2               +4.3368
iter:  18  10:46:35  -4.92  -3.74   -17.783158    2               +4.3394
iter:  19  10:46:36  -5.34  -3.96   -17.783140    2               +4.3399
iter:  20  10:46:36  -5.81  -3.99   -17.783126    2               +4.3405
iter:  21  10:46:37  -5.92  -4.05   -17.783109    2               +4.3415
iter:  22  10:46:38  -6.59  -4.20   -17.783102    2               +4.3419
iter:  23  10:46:39  -5.66  -4.25   -17.783074    2               +4.3434
iter:  24  10:46:40  -5.95  -4.50   -17.783059    2               +4.3441
iter:  25  10:46:41  -6.66  -4.81   -17.783049    2               +4.3445
iter:  26  10:46:42  -7.16  -5.17   -17.783048    2               +4.3445
iter:  27  10:46:43  -7.64  -5.20   -17.783044    2               +4.3447

Converged after 27 iterations.

Dipole moment: (-0.000000, 0.000000, -0.000000) |e|*Ang

Total magnetic moment: (0.000000, 0.000000, 4.342466)
Local magnetic moments:
   0 Fe ( 0.000000,  0.000000,  2.251285)
   1 Fe ( 0.000000,  0.000000,  2.251138)

Energy contributions relative to reference atoms: (reference = -69238.909200)

Kinetic:        +10.264563
Potential:       -8.899439
External:        +0.000000
XC:             -19.688216
Entropy (-ST):   -0.079553
Local:           +0.579824
Free energy:    -17.822821
Extrapolated:   -17.783044

Spin contamination: 0.139286 electrons
Fermi level: 9.68730

Warning: Showing only first 2 kpts
                      Up                     Down
 Kpt  Band  Eigenvalues  Occupancy  Eigenvalues  Occupancy
  0     6      8.57090    0.03704     11.23480    0.00000
  0     7      8.57090    0.03704     11.31501    0.00000
  0     8      9.21650    0.03671     11.31501    0.00000
  0     9      9.70806    0.01660     11.85042    0.00000

  1     6      8.23322    0.11111     10.26873    0.00033
  1     7      8.39946    0.11111     10.82205    0.00000
  1     8      8.77676    0.11110     10.99681    0.00000
  1     9      9.00856    0.11099     11.56236    0.00000

System changes: positions, cell

Initialize ...

Fe-setup:
  name: Iron
  id: 37abbd8d6c3c35915a9b583b742da910
  Z: 26
  valence: 8
  core: 18
  charge: 0.0
  file: /usr/share/gpaw-setups/Fe.PBE.gz
  cutoffs: 1.06(comp), 2.06(filt), 2.67(core), lmax=2
  valence states:
                energy  radius
    4s(2.00)    -5.291   1.164
    4p(0.00)    -1.326   1.058
    3d(6.00)    -7.505   1.058
    *s          21.920   1.164
    *p          25.885   1.058
    *d          19.706   1.058

  Using partial waves for Fe as LCAO basis

Reference energy: -69238.909200

Spin-polarized calculation.
Magnetic moment: 4.400000

Occupation numbers:
  Fermi-Dirac: width=0.1000 eV

Convergence criteria:
  Maximum total energy change: 0.0005 eV / electron
  Maximum integral of absolute density change: 0.0001 electrons
  Maximum integral of absolute eigenstate change: 4e-08 eV^2
  Maximum number of iterations: 333

Symmetries present (total): 48

  ( 1  0  0)  ( 1  0  0)  ( 1  0  0)  ( 1  0  0)  ( 1  0  0)  ( 1  0  0)
  ( 0  1  0)  ( 0  1  0)  ( 0  0  1)  ( 0  0  1)  ( 0  0 -1)  ( 0  0 -1)
  ( 0  0  1)  ( 0  0 -1)  ( 0  1  0)  ( 0 -1  0)  ( 0  1  0)  ( 0 -1  0)

  ( 1  0  0)  ( 1  0  0)  ( 0  1  0)  ( 0  1  0)  ( 0  1  0)  ( 0  1  0)
  ( 0 -1  0)  ( 0 -1  0)  ( 1  0  0)  ( 1  0  0)  ( 0  0  1)  ( 0  0  1)
  ( 0  0  1)  ( 0  0 -1)  ( 0  0  1)  ( 0  0 -1)  ( 1  0  0)  (-1  0  0)

  ( 0  1  0)  ( 0  1  0)  ( 0  1  0)  ( 0  1  0)  ( 0  0  1)  ( 0  0  1)
  ( 0  0 -1)  ( 0  0 -1)  (-1  0  0)  (-1  0  0)  ( 1  0  0)  ( 1  0  0)
  ( 1  0  0)  (-1  0  0)  ( 0  0  1)  ( 0  0 -1)  ( 0  1  0)  ( 0 -1  0)

  ( 0  0  1)  ( 0  0  1)  ( 0  0  1)  ( 0  0  1)  ( 0  0  1)  ( 0  0  1)
  ( 0  1  0)  ( 0  1  0)  ( 0 -1  0)  ( 0 -1  0)  (-1  0  0)  (-1  0  0)
  ( 1  0  0)  (-1  0  0)  ( 1  0  0)  (-1  0  0)  ( 0  1  0)  ( 0 -1  0)

  ( 0  0 -1)  ( 0  0 -1)  ( 0  0 -1)  ( 0  0 -1)  ( 0  0 -1)  ( 0  0 -1)
  ( 1  0  0)  ( 1  0  0)  ( 0  1  0)  ( 0  1  0)  ( 0 -1  0)  ( 0 -1  0)
  ( 0  1  0)  ( 0 -1  0)  ( 1  0  0)  (-1  0  0)  ( 1  0  0)  (-1  0  0)

  ( 0  0 -1)  ( 0  0 -1)  ( 0 -1  0)  ( 0 -1  0)  ( 0 -1  0)  ( 0 -1  0)
  (-1  0  0)  (-1  0  0)  ( 1  0  0)  ( 1  0  0)  ( 0  0  1)  ( 0  0  1)
  ( 0  1  0)  ( 0 -1  0)  ( 0  0  1)  ( 0  0 -1)  ( 1  0  0)  (-1  0  0)

  ( 0 -1  0)  ( 0 -1  0)  ( 0 -1  0)  ( 0 -1  0)  (-1  0  0)  (-1  0  0)
  ( 0  0 -1)  ( 0  0 -1)  (-1  0  0)  (-1  0  0)  ( 0  1  0)  ( 0  1  0)
  ( 1  0  0)  (-1  0  0)  ( 0  0  1)  ( 0  0 -1)  ( 0  0  1)  ( 0  0 -1)

  (-1  0  0)  (-1  0  0)  (-1  0  0)  (-1  0  0)  (-1  0  0)  (-1  0  0)
  ( 0  0  1)  ( 0  0  1)  ( 0  0 -1)  ( 0  0 -1)  ( 0 -1  0)  ( 0 -1  0)
  ( 0  1  0)  ( 0 -1  0)  ( 0  1  0)  ( 0 -1  0)  ( 0  0  1)  ( 0  0 -1)

216 k-points: 6 x 6 x 6 Monkhorst-Pack grid
10 k-points in the irreducible part of the Brillouin zone
       k-points in crystal coordinates                weights
   0:     0.08333333    0.08333333    0.08333333          8/216
   1:     0.25000000    0.08333333    0.08333333         24/216
   2:     0.25000000    0.25000000    0.08333333         24/216
   3:     0.25000000    0.25000000    0.25000000          8/216
   4:     0.41666667    0.08333333    0.08333333         24/216
   5:     0.41666667    0.25000000    0.08333333         48/216
   6:     0.41666667    0.25000000    0.25000000         24/216
   7:     0.41666667    0.41666667    0.08333333         24/216
   8:     0.41666667    0.41666667    0.25000000         24/216
   9:     0.41666667    0.41666667    0.41666667          8/216

Wave functions: Plane wave expansion
  Cutoff energy: 400.000 eV
  Number of coefficients (min, max): 420, 437
  Pulay-stress correction: 0.000000 eV/Ang^3 (de/decut=0.000000)
  Using FFTW library
  ScaLapack parameters: grid=1x1, blocksize=None

Eigensolver
   Davidson(niter=1, smin=None, normalize=True)

Densities:
  Coarse grid: 14*14*14 grid
  Fine grid: 28*28*28 grid
  Total Charge: 0.000000

Density mixing:
  Method: sum
  Backend: pulay
  Linear mixing parameter: 0.05
  Mixing with 5 old densities
  Damping of long wave oscillations: 50

Hamiltonian:
  XC and Coulomb potentials evaluated on a 28*28*28 grid
  Using the PBE Exchange-Correlation functional

Total number of cores used: 1

Number of atoms: 2
Number of atomic orbitals: 18
Number of bands in calculation: 20
Bands to converge: occupied states only
Number of valence electrons: 16

... initialized

Initializing position-dependent things.

Density initialized from atomic densities
Creating initial wave functions:
  18 bands from LCAO basis set
  2 bands from random numbers

[...]

       Fe

Positions:
   0 Fe    -0.000000   -0.000000   -0.000000    ( 0.0000,  0.0000,  2.2000)
   1 Fe     1.429689    1.429689    1.429689    ( 0.0000,  0.0000,  2.2000)

Unit cell:
           periodic     x           y           z      points  spacing
  1. axis:    yes    2.859378    0.000000    0.000000    14     0.2042
  2. axis:    yes    0.000000    2.859378    0.000000    14     0.2042
  3. axis:    yes    0.000000    0.000000    2.859378    14     0.2042

  Lengths:   2.859378   2.859378   2.859378
  Angles:   90.000000  90.000000  90.000000

Effective grid spacing dv^(1/3) = 0.2042

                     log10-error:    total        iterations:
           time      wfs    density  energy       fermi  poisson  magmom
iter:   1  10:46:47  +3.55   +inf   -17.468144    31              +4.2501
iter:   2  10:46:48  +0.23   +inf   -17.594164    2               +4.2424
iter:   3  10:46:49  -0.94   +inf   -17.610528    2               +4.2418
iter:   4  10:46:49  -0.99  -1.43   -17.678875    3               +4.2041
iter:   5  10:46:51  -0.59  -1.48   -17.657926    32              +4.2637
iter:   6  10:46:52  -1.99  -1.82   -17.711139    3               +4.2856
iter:   7  10:46:53  -1.48  -1.94   -17.785335    3               +4.3285
iter:   8  10:46:53  -2.04  -2.74   -17.787424    3               +4.3236
iter:   9  10:46:55  -3.00  -3.16   -17.787730    2               +4.3234
iter:  10  10:46:55  -2.97  -3.14   -17.787603    3               +4.3271
iter:  11  10:46:57  -3.18  -2.85   -17.787561    3               +4.3206
iter:  12  10:46:57  -3.25  -2.95   -17.787826    3               +4.3200
iter:  13  10:46:59  -3.32  -2.61   -17.788214    3               +4.3322
iter:  14  10:47:00  -3.40  -2.79   -17.788130    3               +4.3394
iter:  15  10:47:01  -4.48  -3.71   -17.788152    2               +4.3387
iter:  16  10:47:02  -4.21  -3.49   -17.788040    2               +4.3434
iter:  17  10:47:03  -5.27  -4.12   -17.787978    2               +4.3452
iter:  18  10:47:04  -5.43  -4.11   -17.787966    2               +4.3456
iter:  19  10:47:05  -5.52  -4.10   -17.787985    2               +4.3459
Timing:                              incl.     excl.
Forces:                              1.170     1.170   0.0% |
Hamiltonian:                        14.049     0.013   0.0% |
 Atomic:                            12.230     0.301   0.0% |
  XC Correction:                    11.929    11.929   0.5% |
 Calculate atomic Hamiltonians:      0.147     0.147   0.0% |
 Communicate:                        0.000     0.000   0.0% |
 Initialize Hamiltonian:             0.002     0.002   0.0% |
 Poisson:                            0.006     0.006   0.0% |
 XC 3D grid:                         1.650     1.650   0.1% |
LCAO initialization:                32.688     2.069   0.1% |
 LCAO eigensolver:                  18.375     0.022   0.0% |
  Calculate projections:             0.028     0.028   0.0% |
  DenseAtomicCorrection:             0.084     0.084   0.0% |
  Distribute overlap matrix:         0.011     0.011   0.0% |
  Orbital Layouts:                   0.122     0.122   0.0% |
  Potential matrix:                 16.927    16.927   0.7% |
  Sum over cells:                    1.181     1.181   0.0% |
 LCAO to grid:                       7.135     7.135   0.3% |
 Set positions (LCAO WFS):           5.109     0.010   0.0% |
  Basic WFS set positions:           0.081     0.081   0.0% |
  Basis functions set positions:     0.001     0.001   0.0% |
  TCI: Calculate S, T, P:            5.017     5.017   0.2% |
PWDescriptor:                        0.055     0.055   0.0% |
SCF-cycle:                        2319.237     8.368   0.3% |
 Davidson:                        1831.271   229.026   9.5% |---|
  Subspace diag:                   176.885     2.128   0.1% |
   calc_h_matrix:                  113.069   113.069   4.7% |-|
   diagonalize:                     35.004    35.004   1.4% ||
   rotate_psi:                      26.685    26.685   1.1% |
  calc. matrices:                 1323.366  1323.366  54.7% |---------------------|
  diagonalize:                      74.934    74.934   3.1% ||
  rotate_psi:                       27.061    27.061   1.1% |
 Density:                          103.545     0.020   0.0% |
  Atomic density matrices:           3.520     3.520   0.1% |
  Mix:                              12.836    12.836   0.5% |
  Multipole moments:                 0.131     0.131   0.0% |
  Pseudo density:                   87.038    68.447   2.8% ||
   Symmetrize density:              18.591    18.591   0.8% |
 Hamiltonian:                      347.886     0.361   0.0% |
  Atomic:                          295.201     9.373   0.4% |
   XC Correction:                  285.829   285.829  11.8% |----|
  Calculate atomic Hamiltonians:     4.195     4.195   0.2% |
  Communicate:                       0.007     0.007   0.0% |
  Poisson:                           0.187     0.187   0.0% |
  XC 3D grid:                       47.935    47.935   2.0% ||
 Orthonormalize:                    28.167     0.088   0.0% |
  calc_s_matrix:                     0.411     0.411   0.0% |
  inverse-cholesky:                 25.928    25.928   1.1% |
  projections:                       1.201     1.201   0.0% |
  rotate_psi_s:                      0.539     0.539   0.0% |
Set symmetry:                        0.809     0.809   0.0% |
Stress:                             16.065     0.000   0.0% |
 Stress tensor:                     16.064    16.064   0.7% |
Other:                              33.711    33.711   1.4% ||
Total:                                      2417.784 100.0%

Date: Thu Oct 25 10:47:06 2018