User:   rasmusat@c4-5.local
Date:   Thu Nov 15 11:05:24 2018
Arch:   x86_64
Pid:    49974
Python: 2.7.12
gpaw:   /home/davidkl/.local/lib/python2.7/site-packages/gpaw
_gpaw:  /home/davidkl/.local/bin/gpaw-python
ase:    /home/davidkl/.local/lib/python2.7/site-packages/ase (version 3.16.2)
units:  Angstrom and eV
cores:  32

Input parameters:
  kpts: [2 2 2]
  mode: {ecut: 500.0,
         name: pw}
  nbands: -80
  occupations: {name: fermi-dirac,
                width: 0.05}
  spinpol: True
  xc: PBE

System changes: positions, numbers, cell, pbc, initial_charges, initial_magmoms

Initialize ...

Fe-setup:
  name: Iron
  id: 37abbd8d6c3c35915a9b583b742da910
  Z: 26
  valence: 8
  core: 18
  charge: 0.0
  file: /home/davidkl/gpaw-setups-0.9.20000/Fe.PBE.gz
  cutoffs: 1.06(comp), 2.06(filt), 2.67(core), lmax=2
  valence states:
                energy  radius
    4s(2.00)    -5.291   1.164
    4p(0.00)    -1.326   1.058
    3d(6.00)    -7.505   1.058
    *s          21.920   1.164
    *p          25.885   1.058
    *d          19.706   1.058

  Using partial waves for Fe as LCAO basis

Reference energy: -2215645.094396

Spin-polarized calculation.
Magnetic moment:  140.800000

Occupation numbers:
  Fermi-Dirac: width=0.0500 eV

Convergence criteria:
  Maximum total energy change: 0.0005 eV / electron
  Maximum integral of absolute density change: 0.0001 electrons
  Maximum integral of absolute eigenstate change: 4e-08 eV^2
  Maximum number of iterations: 333

Symmetries present (total): 48

  ( 1  1  1)  ( 1  1  1)  ( 1  1  1)  ( 1  1  1)  ( 1  1  1)  ( 1  1  1)
  ( 0  0 -1)  ( 0  0 -1)  ( 0 -1  0)  ( 0 -1  0)  (-1  0  0)  (-1  0  0)
  ( 0 -1  0)  (-1  0  0)  ( 0  0 -1)  (-1  0  0)  ( 0  0 -1)  ( 0 -1  0)

[...]

  (-1  0  0)  (-1  0  0)  (-1  0  0)  (-1  0  0)  (-1  0  0)  (-1  0  0)
  ( 1  1  1)  ( 1  1  1)  ( 0  0 -1)  ( 0  0 -1)  ( 0 -1  0)  ( 0 -1  0)
  ( 0  0 -1)  ( 0 -1  0)  ( 1  1  1)  ( 0 -1  0)  ( 1  1  1)  ( 0  0 -1)

[...]

8 k-points: 2 x 2 x 2 Monkhorst-Pack grid
2 k-points in the irreducible part of the Brillouin zone
       k-points in crystal coordinates                weights
   0:     0.25000000    0.25000000   -0.25000000          6/8
   1:     0.25000000    0.25000000    0.25000000          2/8

Wave functions: Plane wave expansion
  Cutoff energy: 500.000 eV
  Number of coefficients (min, max): 18981, 19116
  Pulay-stress correction: 0.000000 eV/Ang^3 (de/decut=0.000000)
  Using FFTW library
  Eigensolver: None  MatrixOperator buffer_size: default value or
                              see value of nblock in input file
Diagonalizer layout: Serial LAPACKOrthonormalizer layout: Serial LAPACK

Davidson(niter=1, smin=None, normalize=True)

Densities:
  Coarse grid: 42*42*42 grid
  Fine grid: 84*84*84 grid
  Total Charge: 0.000000

Density mixing:
  Method: sum
  Backend: pulay
  Linear mixing parameter: 0.05
  Mixing with 5 old densities
  Damping of long wave oscillations: 50

Hamiltonian:
  XC and Coulomb potentials evaluated on a 84*84*84 grid
  Using the PBE Exchange-Correlation functional

Total number of cores used: 32
Parallelization over k-points and spin: 4
Parallelization over states: 8

Number of atoms: 64
Number of atomic orbitals: 576
Adjusting number of bands by +2 to match parallelization
Number of bands in calculation: 408
Bands to converge: occupied states only
Number of valence electrons: 512

... initialized

Initializing position-dependent things.

Density initialized from atomic densities
Creating initial wave functions:
  408 bands from LCAO basis set

                    Fe
                 Fe     Fe
               Fe     FFe    Fe
            Fe  Fe FFe Fe FFe Fe Fe
                 Fe  Fe Fe  Fe Fe
               Fe     Fe Fe  Fe     Fe
                   Fe  Fe Fe  Fe Fe
                    Fe Fe  Fe Fe  Fe
                 Fe     Fe  Fe Fe     Fe
                      Fe Fe  Fe Fe  Fe
                    Fe Fe FFe Fe FFe Fe  Fe
                        Fe    FFe     Fe
                             Fe     Fe
                                 Fe

Positions:
   0 Fe     0.000000    0.000000    0.000000
   1 Fe     1.430000    1.430000   -1.430000
   2 Fe     2.860000    2.860000   -2.860000
   3 Fe     4.290000    4.290000   -4.290000
   4 Fe     1.430000   -1.430000    1.430000
   5 Fe     2.860000    0.000000    0.000000
   6 Fe     4.290000    1.430000   -1.430000
   7 Fe     5.720000    2.860000   -2.860000
   8 Fe     2.860000   -2.860000    2.860000
   9 Fe     4.290000   -1.430000    1.430000
  10 Fe     5.720000    0.000000    0.000000
  11 Fe     7.150000    1.430000   -1.430000
  12 Fe     4.290000   -4.290000    4.290000
  13 Fe     5.720000   -2.860000    2.860000
  14 Fe     7.150000   -1.430000    1.430000
  15 Fe     8.580000    0.000000    0.000000
  16 Fe    -1.430000    1.430000    1.430000
  17 Fe     0.000000    2.860000    0.000000
  18 Fe     1.430000    4.290000   -1.430000
  19 Fe     2.860000    5.720000   -2.860000
  20 Fe     0.000000    0.000000    2.860000
  21 Fe     1.430000    1.430000    1.430000
  22 Fe     2.860000    2.860000    0.000000
  23 Fe     4.290000    4.290000   -1.430000
  24 Fe     1.430000   -1.430000    4.290000
  25 Fe     2.860000    0.000000    2.860000
  26 Fe     4.290000    1.430000    1.430000
  27 Fe     5.720000    2.860000    0.000000
  28 Fe     2.860000   -2.860000    5.720000
  29 Fe     4.290000   -1.430000    4.290000
  30 Fe     5.720000   -0.000000    2.860000
  31 Fe     7.150000    1.430000    1.430000
  32 Fe    -2.860000    2.860000    2.860000
  33 Fe    -1.430000    4.290000    1.430000
  34 Fe     0.000000    5.720000    0.000000
  35 Fe     1.430000    7.150000   -1.430000
  36 Fe    -1.430000    1.430000    4.290000
  37 Fe     0.000000    2.860000    2.860000
  38 Fe     1.430000    4.290000    1.430000
  39 Fe     2.860000    5.720000    0.000000
  40 Fe     0.000000    0.000000    5.720000
  41 Fe     1.430000    1.430000    4.290000
  42 Fe     2.860000    2.860000    2.860000
  43 Fe     4.290000    4.290000    1.430000
  44 Fe     1.430000   -1.430000    7.150000
  45 Fe     2.860000   -0.000000    5.720000
  46 Fe     4.290000    1.430000    4.290000
  47 Fe     5.720000    2.860000    2.860000
  48 Fe    -4.290000    4.290000    4.290000
  49 Fe    -2.860000    5.720000    2.860000
  50 Fe    -1.430000    7.150000    1.430000
  51 Fe     0.000000    8.580000    0.000000
  52 Fe    -2.860000    2.860000    5.720000
  53 Fe    -1.430000    4.290000    4.290000
  54 Fe    -0.000000    5.720000    2.860000
  55 Fe     1.430000    7.150000    1.430000
  56 Fe    -1.430000    1.430000    7.150000
  57 Fe    -0.000000    2.860000    5.720000
  58 Fe     1.430000    4.290000    4.290000
  59 Fe     2.860000    5.720000    2.860000
  60 Fe     0.000000    0.000000    8.580000
  61 Fe     1.430000    1.430000    7.150000
  62 Fe     2.860000    2.860000    5.720000
  63 Fe     4.290000    4.290000    4.290000

Unit cell:
           periodic     x           y           z      points  spacing
  1. axis:    yes   -5.720000    5.720000    5.720000    42     0.1926
  2. axis:    yes    5.720000   -5.720000    5.720000    42     0.1926
  3. axis:    yes    5.720000    5.720000   -5.720000    42     0.1926

  Lengths:   9.907331   9.907331   9.907331
  Angles:  109.471221 109.471221 109.471221

Effective grid spacing dv^(1/3) = 0.2162

                     log10-error:    total        iterations:
           time      wfs    density  energy       fermi  poisson  magmom
iter:   1  11:06:39  +1.21   +inf  -564.804333    3               +135.9582
iter:   2  11:07:08  +0.39   +inf  -569.423900    2               +135.9341
iter:   3  11:07:37  -0.57   +inf  -570.485571    2               +135.9286
iter:   4  11:08:11  -0.54  -1.45  -572.903897    4               +135.7575
iter:   5  11:08:45  -0.54  -1.50  -572.222816    33              +136.0914
iter:   6  11:09:19  -0.49  -1.70  -575.854835    36              +139.4150
iter:   7  11:09:53  -0.15  -1.76  -576.167146    5               +136.8763
iter:   8  11:10:26  -0.93  -2.01  -576.665941    4               +138.4354
iter:   9  11:11:00  -1.89  -2.24  -577.038744    4               +138.5917
iter:  10  11:11:34  -2.06  -2.28  -576.979915    4               +138.2926
iter:  11  11:12:07  -2.21  -2.46  -576.961730    4               +137.8636
iter:  12  11:12:41  -2.98  -3.25  -576.969593    3               +137.7703
iter:  13  11:13:15  -2.84  -3.18  -576.967234    3               +137.8137
iter:  14  11:13:48  -3.82  -4.11  -576.967926    3               +137.8263
iter:  15  11:14:22  -3.80  -4.30  -576.968390    2               +137.8251
iter:  16  11:14:56  -4.35  -4.30  -576.968596    2               +137.8211
iter:  17  11:15:29  -4.44  -4.57  -576.968663    2               +137.8223
iter:  18  11:16:03  -4.80  -4.62  -576.968646    2               +137.8252
iter:  19  11:16:37  -4.44  -4.39  -576.969196    3               +137.8123
iter:  20  11:17:10  -5.08  -3.97  -576.969122    2               +137.8157
iter:  21  11:17:44  -5.43  -4.14  -576.969079    2               +137.8172
iter:  22  11:18:18  -4.38  -4.20  -576.968597    3               +137.8343
iter:  23  11:18:51  -4.99  -4.00  -576.968716    3               +137.8287
iter:  24  11:19:25  -6.13  -4.34  -576.968734    2               +137.8283
iter:  25  11:19:59  -5.61  -4.38  -576.968830    2               +137.8249
iter:  26  11:20:32  -5.53  -4.96  -576.968734    2               +137.8287
iter:  27  11:21:06  -5.60  -4.36  -576.968842    2               +137.8245
iter:  28  11:21:40  -6.85  -5.10  -576.968854    2               +137.8241
iter:  29  11:22:14  -6.75  -5.49  -576.968858    2               +137.8240
iter:  30  11:22:47  -7.32  -5.67  -576.968860    2               +137.8239
iter:  31  11:23:21  -7.19  -5.77  -576.968860    1               +137.8239
iter:  32  11:23:55  -7.68  -5.84  -576.968853    2               +137.8241

Converged after 32 iterations.

Dipole moment: (0.000000, 0.000000, -0.000000) |e|*Ang

Total magnetic moment: 137.824136
Local magnetic moments:
   0 Fe 2.245596
   1 Fe 2.245602
   2 Fe 2.245596
   3 Fe 2.245602
   4 Fe 2.245602
   5 Fe 2.245605
   6 Fe 2.245602
   7 Fe 2.245605
   8 Fe 2.245596
   9 Fe 2.245602
  10 Fe 2.245596
  11 Fe 2.245602
  12 Fe 2.245602
  13 Fe 2.245605
  14 Fe 2.245602
  15 Fe 2.245605
  16 Fe 2.245602
  17 Fe 2.245605
  18 Fe 2.245602
  19 Fe 2.245605
  20 Fe 2.245605
  21 Fe 2.245602
  22 Fe 2.245605
  23 Fe 2.245602
  24 Fe 2.245602
  25 Fe 2.245605
  26 Fe 2.245602
  27 Fe 2.245605
  28 Fe 2.245605
  29 Fe 2.245602
  30 Fe 2.245605
  31 Fe 2.245602
  32 Fe 2.245596
  33 Fe 2.245602
  34 Fe 2.245596
  35 Fe 2.245602
  36 Fe 2.245602
  37 Fe 2.245605
  38 Fe 2.245602
  39 Fe 2.245605
  40 Fe 2.245596
  41 Fe 2.245602
  42 Fe 2.245596
  43 Fe 2.245602
  44 Fe 2.245602
  45 Fe 2.245605
  46 Fe 2.245602
  47 Fe 2.245605
  48 Fe 2.245602
  49 Fe 2.245605
  50 Fe 2.245602
  51 Fe 2.245605
  52 Fe 2.245605
  53 Fe 2.245602
  54 Fe 2.245605
  55 Fe 2.245602
  56 Fe 2.245602
  57 Fe 2.245605
  58 Fe 2.245602
  59 Fe 2.245605
  60 Fe 2.245605
  61 Fe 2.245602
  62 Fe 2.245605
  63 Fe 2.245602

[...]
  9 Fe    0.00000   -0.00000    0.00000
 10 Fe    0.00000    0.00000    0.00000
 11 Fe   -0.00000    0.00000   -0.00000
 12 Fe   -0.00000    0.00000   -0.00000
 13 Fe    0.00000    0.00000   -0.00000
 14 Fe   -0.00000   -0.00000    0.00000
 15 Fe   -0.00000    0.00000    0.00000
 16 Fe   -0.00000    0.00000    0.00000
 17 Fe    0.00000    0.00000   -0.00000
 18 Fe    0.00000    0.00000   -0.00000
 19 Fe   -0.00000   -0.00000    0.00000
 20 Fe    0.00000    0.00000    0.00000
 21 Fe    0.00000    0.00000    0.00000
 22 Fe    0.00000    0.00000    0.00000
 23 Fe   -0.00000   -0.00000    0.00000
 24 Fe    0.00000   -0.00000    0.00000
 25 Fe    0.00000    0.00000    0.00000
 26 Fe    0.00000    0.00000    0.00000
 27 Fe   -0.00000    0.00000   -0.00000
 28 Fe   -0.00000    0.00000   -0.00000
 29 Fe   -0.00000    0.00000   -0.00000
 30 Fe   -0.00000    0.00000   -0.00000
 31 Fe   -0.00000    0.00000    0.00000
 32 Fe   -0.00000    0.00000    0.00000
 33 Fe   -0.00000    0.00000    0.00000
 34 Fe    0.00000    0.00000    0.00000
 35 Fe    0.00000   -0.00000   -0.00000
 36 Fe   -0.00000    0.00000    0.00000
 37 Fe    0.00000    0.00000    0.00000
 38 Fe    0.00000    0.00000    0.00000
 39 Fe   -0.00000   -0.00000    0.00000
 40 Fe   -0.00000   -0.00000    0.00000
 41 Fe    0.00000    0.00000    0.00000
 42 Fe    0.00000    0.00000    0.00000
 43 Fe   -0.00000   -0.00000   -0.00000
 44 Fe    0.00000   -0.00000   -0.00000
 45 Fe   -0.00000    0.00000    0.00000
 46 Fe   -0.00000   -0.00000   -0.00000
 47 Fe   -0.00000   -0.00000   -0.00000
 48 Fe    0.00000   -0.00000   -0.00000
 49 Fe    0.00000    0.00000   -0.00000
 50 Fe   -0.00000   -0.00000    0.00000
 51 Fe    0.00000   -0.00000    0.00000
 52 Fe    0.00000   -0.00000    0.00000
 53 Fe    0.00000   -0.00000   -0.00000
 54 Fe   -0.00000   -0.00000   -0.00000
 55 Fe    0.00000   -0.00000    0.00000
 56 Fe   -0.00000    0.00000   -0.00000
 57 Fe    0.00000    0.00000    0.00000
 58 Fe   -0.00000   -0.00000   -0.00000
 59 Fe   -0.00000    0.00000   -0.00000
 60 Fe    0.00000    0.00000   -0.00000
 61 Fe    0.00000    0.00000   -0.00000
 62 Fe   -0.00000   -0.00000   -0.00000
 63 Fe   -0.00000   -0.00000   -0.00000

Stress tensor:
     0.038681     0.000000     0.000000
     0.000000     0.038681    -0.000000
     0.000000    -0.000000     0.038681
Writing to fe_64atoms_relaxed.gpw (mode='')

System changes: positions, cell

[...]

  ( 1  0  0)  ( 1  0  0)  ( 0  1  0)  ( 0  1  0)  ( 0  0  1)  ( 0  0  1)
  ( 0  1  0)  ( 0  0  1)  ( 1  0  0)  ( 0  0  1)  ( 1  0  0)  ( 0  1  0)
  ( 0  0  1)  ( 0  1  0)  ( 0  0  1)  ( 1  0  0)  ( 0  1  0)  ( 1  0  0)

[...]

Stress tensor:
     0.039275     0.000039     0.000039
     0.000039     0.039275     0.000039
     0.000039     0.000039     0.039275
System changes: positions, cell

[...]

Forces in eV/Ang:
  0 Fe   -0.00000   -0.00000   -0.00000
  1 Fe   -0.00035   -0.00035    0.00035
  2 Fe   -0.00000   -0.00000   -0.00000
  3 Fe    0.00035    0.00035   -0.00035
  4 Fe   -0.00035    0.00035   -0.00035
  5 Fe   -0.00067    0.00000    0.00000
  6 Fe   -0.00022   -0.00002    0.00002
  7 Fe   -0.00000    0.00029   -0.00029
  8 Fe    0.00000   -0.00000   -0.00000
  9 Fe   -0.00022    0.00002   -0.00002
 10 Fe    0.00000    0.00000   -0.00000
 11 Fe    0.00022   -0.00002    0.00002
 12 Fe    0.00035   -0.00035    0.00035
 13 Fe   -0.00000   -0.00029    0.00029
 14 Fe    0.00022    0.00002   -0.00002
 15 Fe    0.00067    0.00000    0.00000
 16 Fe    0.00035   -0.00035   -0.00035
 17 Fe    0.00000   -0.00067    0.00000
 18 Fe   -0.00002   -0.00022    0.00002
 19 Fe    0.00029   -0.00000   -0.00029
 20 Fe   -0.00000   -0.00000   -0.00067
 21 Fe   -0.00035   -0.00035   -0.00035
 22 Fe   -0.00029   -0.00029   -0.00000
 23 Fe    0.00002    0.00002   -0.00022
 24 Fe   -0.00002    0.00002   -0.00022
 25 Fe   -0.00029   -0.00000   -0.00029
 26 Fe   -0.00022   -0.00002   -0.00002
 27 Fe   -0.00000   -0.00000   -0.00000
 28 Fe    0.00029   -0.00029    0.00000
 29 Fe    0.00002   -0.00022    0.00002
 30 Fe    0.00000   -0.00000    0.00000
 31 Fe    0.00022   -0.00002   -0.00002
 32 Fe    0.00000   -0.00000   -0.00000
 33 Fe    0.00002   -0.00022   -0.00002
 34 Fe    0.00000   -0.00000    0.00000
 35 Fe   -0.00002    0.00022    0.00002
 36 Fe    0.00002   -0.00002   -0.00022
 37 Fe    0.00000   -0.00029   -0.00029
 38 Fe   -0.00002   -0.00022   -0.00002
 39 Fe   -0.00000   -0.00000    0.00000
 40 Fe    0.00000   -0.00000    0.00000
 41 Fe   -0.00002   -0.00002   -0.00022
 42 Fe   -0.00000   -0.00000   -0.00000
 43 Fe    0.00002    0.00002    0.00022
 44 Fe   -0.00002    0.00002    0.00022
 45 Fe   -0.00000    0.00000   -0.00000
 46 Fe    0.00002    0.00022    0.00002
 47 Fe    0.00000    0.00029    0.00029
 48 Fe   -0.00035    0.00035    0.00035
 49 Fe   -0.00029    0.00000    0.00029
 50 Fe    0.00002    0.00022   -0.00002
 51 Fe   -0.00000    0.00067    0.00000
 52 Fe   -0.00029    0.00029    0.00000
 53 Fe   -0.00022    0.00002    0.00002
 54 Fe   -0.00000    0.00000    0.00000
 55 Fe   -0.00002    0.00022   -0.00002
 56 Fe    0.00002   -0.00002    0.00022
 57 Fe    0.00000   -0.00000    0.00000
 58 Fe    0.00022    0.00002    0.00002
 59 Fe    0.00029    0.00000    0.00029
 60 Fe    0.00000   -0.00000    0.00067
 61 Fe   -0.00002   -0.00002    0.00022
 62 Fe    0.00029    0.00029   -0.00000
 63 Fe    0.00035    0.00035    0.00035

Stress tensor:
     0.021799    -0.000000     0.000000
    -0.000000     0.021799     0.000000
     0.000000     0.000000     0.021799
Writing to fe_64atoms_relaxed.gpw (mode='')

[...]

Converged after 29 iterations.

Dipole moment: (-0.000000, 0.000000, 0.000000) |e|*Ang

Total magnetic moment: 137.603680
Local magnetic moments:
   0 Fe 2.239684
   1 Fe 2.239694
   2 Fe 2.239653
   3 Fe 2.239694
   4 Fe 2.239694
   5 Fe 2.239692
   6 Fe 2.239657
   7 Fe 2.239667
   8 Fe 2.239653
   9 Fe 2.239657
  10 Fe 2.239642
  11 Fe 2.239657
  12 Fe 2.239694
  13 Fe 2.239667
  14 Fe 2.239657
  15 Fe 2.239692
  16 Fe 2.239694
  17 Fe 2.239692
  18 Fe 2.239657
  19 Fe 2.239667
  20 Fe 2.239692
  21 Fe 2.239694
  22 Fe 2.239667
  23 Fe 2.239657
  24 Fe 2.239657
  25 Fe 2.239667
  26 Fe 2.239657
  27 Fe 2.239648
  28 Fe 2.239667
  29 Fe 2.239657
  30 Fe 2.239648
  31 Fe 2.239657
  32 Fe 2.239653
  33 Fe 2.239657
  34 Fe 2.239642
  35 Fe 2.239657
  36 Fe 2.239657
  37 Fe 2.239667
  38 Fe 2.239657
  39 Fe 2.239648
  40 Fe 2.239642
  41 Fe 2.239657
  42 Fe 2.239653
  43 Fe 2.239657
  44 Fe 2.239657
  45 Fe 2.239648
  46 Fe 2.239657
  47 Fe 2.239667
  48 Fe 2.239694
  49 Fe 2.239667
  50 Fe 2.239657
  51 Fe 2.239692
  52 Fe 2.239667
  53 Fe 2.239657
  54 Fe 2.239648
  55 Fe 2.239657
  56 Fe 2.239657
  57 Fe 2.239648
  58 Fe 2.239657
  59 Fe 2.239667
  60 Fe 2.239692
  61 Fe 2.239657
  62 Fe 2.239667
  63 Fe 2.239694

Energy contributions relative to reference atoms: (reference = -2215645.094396)

Kinetic:       +421.193126
Potential:     -357.161160
External:        +0.000000
XC:            -647.327998
Entropy (-ST):   -0.369736
Local:           +6.281020
Free energy:   -577.384748
Extrapolated:  -577.199880

Spin contamination: 4.702999 electrons
Fermi level: 9.91538

Showing all kpts
                      Up                     Down
 Kpt  Band  Eigenvalues  Occupancy  Eigenvalues  Occupancy
  0   254      8.94617    0.75000     11.37587    0.00000
  0   255      8.96046    0.75000     11.37587    0.00000
  0   256      8.96049    0.75000     11.37712    0.00000
  0   257      8.96157    0.75000     11.41748    0.00000

  1   254      8.96601    0.25000     11.39183    0.00000
  1   255      8.96630    0.25000     11.39183    0.00000
  1   256      8.96630    0.25000     11.45022    0.00000
  1   257      8.96631    0.25000     11.45022    0.00000

System changes: positions, cell

Initialize ...

Fe-setup:
  name: Iron
  id: 37abbd8d6c3c35915a9b583b742da910
  Z: 26
  valence: 8
  core: 18
  charge: 0.0
  file: /home/davidkl/gpaw-setups-0.9.20000/Fe.PBE.gz
  cutoffs: 1.06(comp), 2.06(filt), 2.67(core), lmax=2
  valence states:
                energy  radius
    4s(2.00)    -5.291   1.164
    4p(0.00)    -1.326   1.058
    3d(6.00)    -7.505   1.058
    *s          21.920   1.164
    *p          25.885   1.058
    *d          19.706   1.058

  Using partial waves for Fe as LCAO basis

Reference energy: -2215645.094396

Spin-polarized calculation.
Magnetic moment:  140.800000

Occupation numbers:
  Fermi-Dirac: width=0.0500 eV

Convergence criteria:
  Maximum total energy change: 0.0005 eV / electron
  Maximum integral of absolute density change: 0.0001 electrons
  Maximum integral of absolute eigenstate change: 4e-08 eV^2
  Maximum number of iterations: 333

Symmetries present (total): 48

[...]

  ( 0 -1  0)  ( 0 -1  0)  ( 0 -1  0)  ( 0 -1  0)  ( 0 -1  0)  ( 0 -1  0)
  ( 1  1  1)  ( 1  1  1)  ( 0  0 -1)  ( 0  0 -1)  (-1  0  0)  (-1  0  0)
  ( 0  0 -1)  (-1  0  0)  ( 1  1  1)  (-1  0  0)  ( 1  1  1)  ( 0  0 -1)

[...]

  (-1 -1 -1)  (-1 -1 -1)  (-1 -1 -1)  (-1 -1 -1)  (-1 -1 -1)  (-1 -1 -1)
  ( 1  0  0)  ( 1  0  0)  ( 0  1  0)  ( 0  1  0)  ( 0  0  1)  ( 0  0  1)
  ( 0  1  0)  ( 0  0  1)  ( 1  0  0)  ( 0  0  1)  ( 1  0  0)  ( 0  1  0)

8 k-points: 2 x 2 x 2 Monkhorst-Pack grid
2 k-points in the irreducible part of the Brillouin zone
       k-points in crystal coordinates                weights
   0:     0.25000000    0.25000000   -0.25000000          6/8
   1:     0.25000000    0.25000000    0.25000000          2/8

Wave functions: Plane wave expansion
  Cutoff energy: 500.000 eV
  Number of coefficients (min, max): 18780, 18825
  Pulay-stress correction: 0.000000 eV/Ang^3 (de/decut=0.000000)
  Using FFTW library
  Eigensolver: None  MatrixOperator buffer_size: default value or
                              see value of nblock in input file
Diagonalizer layout: Serial LAPACKOrthonormalizer layout: Serial LAPACK

Davidson(niter=1, smin=None, normalize=True)

Densities:
  Coarse grid: 42*42*42 grid
  Fine grid: 84*84*84 grid
  Total Charge: 0.000000

Density mixing:
  Method: sum
  Backend: pulay
  Linear mixing parameter: 0.05
  Mixing with 5 old densities
  Damping of long wave oscillations: 50

Hamiltonian:
  XC and Coulomb potentials evaluated on a 84*84*84 grid
  Using the PBE Exchange-Correlation functional

Total number of cores used: 32
Parallelization over k-points and spin: 4
Parallelization over states: 8

Number of atoms: 64
Number of atomic orbitals: 576
Adjusting number of bands by +2 to match parallelization
Number of bands in calculation: 408
Bands to converge: occupied states only
Number of valence electrons: 512

... initialized

Initializing position-dependent things.

Density initialized from atomic densities
Creating initial wave functions:
  408 bands from LCAO basis set

                    Fe
                 Fe     Fe
               Fe     FFe    Fe
            Fe  Fe FFe Fe FFe Fe Fe
                 Fe  Fe Fe  Fe Fe
               Fe     Fe Fe  Fe     Fe
                   Fe  Fe Fe  Fe Fe
                    Fe Fe  Fe Fe  Fe
                 Fe     Fe  Fe Fe     Fe
                      Fe Fe  Fe Fe  Fe
                    Fe Fe FFe Fe FFe Fe  Fe
                        Fe    FFe     Fe
                             Fe     Fe
                                 Fe

Positions:
   0 Fe    -0.000000    0.000000   -0.000000
   1 Fe     1.423757    1.423757   -1.423757
   2 Fe     2.847481    2.847481   -2.847481
   3 Fe     4.271206    4.271206   -4.271206
   4 Fe     1.423757   -1.423757    1.423757
   5 Fe     2.847518    0.000000   -0.000000
   6 Fe     4.271236    1.423743   -1.423743
   7 Fe     5.694963    2.847468   -2.847468
   8 Fe     2.847481   -2.847481    2.847481
   9 Fe     4.271236   -1.423743    1.423743
  10 Fe     5.694963    0.000000   -0.000000
  11 Fe     7.118690    1.423743   -1.423743
  12 Fe     4.271206   -4.271206    4.271206
  13 Fe     5.694963   -2.847468    2.847468
  14 Fe     7.118690   -1.423743    1.423743
  15 Fe     8.542408    0.000000   -0.000000
  16 Fe    -1.423757    1.423757    1.423757
  17 Fe    -0.000000    2.847518   -0.000000
  18 Fe     1.423743    4.271236   -1.423743
  19 Fe     2.847468    5.694963   -2.847468
  20 Fe    -0.000000    0.000000    2.847518
  21 Fe     1.423757    1.423757    1.423757
  22 Fe     2.847495    2.847495   -0.000000
  23 Fe     4.271220    4.271220   -1.423727
  24 Fe     1.423743   -1.423743    4.271236
  25 Fe     2.847495    0.000000    2.847495
  26 Fe     4.271236    1.423743    1.423743
  27 Fe     5.694963    2.847481   -0.000000
  28 Fe     2.847468   -2.847468    5.694963
  29 Fe     4.271220   -1.423727    4.271220
  30 Fe     5.694963   -0.000000    2.847481
  31 Fe     7.118690    1.423743    1.423743
  32 Fe    -2.847481    2.847481    2.847481
  33 Fe    -1.423743    4.271236    1.423743
  34 Fe    -0.000000    5.694963   -0.000000
  35 Fe     1.423743    7.118690   -1.423743
  36 Fe    -1.423743    1.423743    4.271236
  37 Fe    -0.000000    2.847495    2.847495
  38 Fe     1.423743    4.271236    1.423743
  39 Fe     2.847481    5.694963   -0.000000
  40 Fe    -0.000000    0.000000    5.694963
  41 Fe     1.423743    1.423743    4.271236
  42 Fe     2.847481    2.847481    2.847481
  43 Fe     4.271220    4.271220    1.423727
  44 Fe     1.423743   -1.423743    7.118690
  45 Fe     2.847481   -0.000000    5.694963
  46 Fe     4.271220    1.423727    4.271220
  47 Fe     5.694963    2.847468    2.847468
  48 Fe    -4.271206    4.271206    4.271206
  49 Fe    -2.847468    5.694963    2.847468
  50 Fe    -1.423743    7.118690    1.423743
  51 Fe    -0.000000    8.542408   -0.000000
  52 Fe    -2.847468    2.847468    5.694963
  53 Fe    -1.423727    4.271220    4.271220
  54 Fe    -0.000000    5.694963    2.847481
  55 Fe     1.423743    7.118690    1.423743
  56 Fe    -1.423743    1.423743    7.118690
  57 Fe    -0.000000    2.847481    5.694963
  58 Fe     1.423727    4.271220    4.271220
  59 Fe     2.847468    5.694963    2.847468
  60 Fe    -0.000000    0.000000    8.542408
  61 Fe     1.423743    1.423743    7.118690
  62 Fe     2.847468    2.847468    5.694963
  63 Fe     4.271206    4.271206    4.271206

Unit cell:
           periodic     x           y           z      points  spacing
  1. axis:    yes   -5.694963    5.694963    5.694963    42     0.1918
  2. axis:    yes    5.694963   -5.694963    5.694963    42     0.1918
  3. axis:    yes    5.694963    5.694963   -5.694963    42     0.1918

  Lengths:   9.863965   9.863965   9.863965
  Angles:  109.471221 109.471221 109.471221

Effective grid spacing dv^(1/3) = 0.2152

                     log10-error:    total        iterations:
           time      wfs    density  energy       fermi  poisson  magmom
iter:   1  18:42:20  +1.23   +inf  -565.171690    36              +135.8784
iter:   2  18:43:07  +0.40   +inf  -569.865567    2               +135.8473
iter:   3  18:43:55  -0.56   +inf  -570.949173    2               +135.8390
iter:   4  18:44:47  -0.53  -1.45  -573.286621    3               +135.5385
iter:   5  18:45:39  -0.51  -1.49  -572.474240    37              +135.9411
iter:   6  18:46:32  -0.46  -1.70  -576.166744    37              +138.8300
iter:   7  18:47:24  -0.14  -1.76  -576.407334    5               +136.5328
iter:   8  18:48:16  -1.09  -2.03  -577.009632    5               +137.8168
iter:   9  18:49:09  -1.99  -2.40  -577.177665    3               +137.6190
iter:  10  18:50:01  -2.53  -2.73  -577.196983    3               +137.7020
iter:  11  18:50:54  -2.09  -2.67  -577.196441    4               +137.5604
iter:  12  18:51:46  -3.08  -3.06  -577.198635    3               +137.5719
iter:  13  18:52:39  -3.57  -3.37  -577.199016    3               +137.5893
iter:  14  18:53:31  -3.57  -3.70  -577.199228    3               +137.6003
iter:  15  18:54:23  -4.21  -3.94  -577.199521    3               +137.6054
iter:  16  18:55:16  -4.23  -3.90  -577.199699    2               +137.6073
iter:  17  18:56:08  -4.54  -3.86  -577.199910    3               +137.6001
iter:  18  18:57:00  -4.84  -4.03  -577.199934    2               +137.5985
iter:  19  18:57:53  -4.01  -4.13  -577.200542    3               +137.5827
iter:  20  18:58:45  -4.11  -3.63  -577.199935    3               +137.5981
iter:  21  18:59:37  -5.60  -4.32  -577.199916    2               +137.5990
iter:  22  19:00:30  -5.44  -4.49  -577.199888    2               +137.6017
iter:  23  19:01:22  -5.94  -4.60  -577.199899    2               +137.6026
iter:  24  19:02:15  -6.15  -4.79  -577.199888    2               +137.6026
iter:  25  19:03:07  -6.47  -4.75  -577.199892    2               +137.6031
iter:  26  19:04:00  -6.68  -4.85  -577.199892    2               +137.6031
iter:  27  19:04:52  -6.99  -5.17  -577.199883    2               +137.6034