User:   rasmusat@c25-7.local
Date:   Thu Nov 29 16:58:51 2018
Arch:   x86_64
Pid:    36102
Python: 2.7.12
gpaw:   /home/davidkl/.local/lib/python2.7/site-packages/gpaw
_gpaw:  /home/davidkl/.local/bin/gpaw-python
ase:    /home/davidkl/.local/lib/python2.7/site-packages/ase (version 3.16.2)
units:  Angstrom and eV
cores:  32

Input parameters:
  kpts: [10 10 10]
  mode: {ecut: 500.0,
         name: pw}
  nbands: -25
  occupations: {name: fermi-dirac,
                width: 0.1}
  spinpol: True
  xc: PBE

System changes: positions, numbers, cell, pbc, initial_charges, initial_magmoms

Initialize ...

Fe-setup:
  name: Iron
  id: 37abbd8d6c3c35915a9b583b742da910
  Z: 26
  valence: 8
  core: 18
  charge: 0.0
  file: /home/davidkl/gpaw-setups-0.9.20000/Fe.PBE.gz
  cutoffs: 1.06(comp), 2.06(filt), 2.67(core), lmax=2
  valence states:
                energy  radius
    4s(2.00)    -5.291   1.164
    4p(0.00)    -1.326   1.058
    3d(6.00)    -7.505   1.058
    *s          21.920   1.164
    *p          25.885   1.058
    *d          19.706   1.058

  Using partial waves for Fe as LCAO basis

Reference energy: -276955.636799

Spin-polarized calculation.
Magnetic moment:  17.600000

Occupation numbers:
  Fermi-Dirac: width=0.1000 eV

Convergence criteria:
  Maximum total energy change: 0.0005 eV / electron
  Maximum integral of absolute density change: 0.0001 electrons
  Maximum integral of absolute eigenstate change: 4e-08 eV^2
  Maximum number of iterations: 333

Symmetries present (total): 6

  ( 1  0  0)  ( 1  0  0)  ( 0  1  0)  ( 0  1  0)  ( 0  0  1)  ( 0  0  1)
  ( 0  1  0)  ( 0  0  1)  ( 1  0  0)  ( 0  0  1)  ( 1  0  0)  ( 0  1  0)
  ( 0  0  1)  ( 0  1  0)  ( 0  0  1)  ( 1  0  0)  ( 0  1  0)  ( 1  0  0)

1000 k-points: 10 x 10 x 10 Monkhorst-Pack grid
110 k-points in the irreducible part of the Brillouin zone
       k-points in crystal coordinates                weights
   0:     0.05000000    0.05000000   -0.05000000          6/1000
   1:     0.05000000    0.05000000    0.05000000          2/1000
   2:     0.15000000   -0.05000000   -0.05000000          6/1000
   3:     0.15000000    0.05000000   -0.15000000         12/1000
   4:     0.15000000    0.05000000   -0.05000000         12/1000
   5:     0.15000000    0.05000000    0.05000000          6/1000
   6:     0.15000000    0.15000000   -0.15000000          6/1000
   7:     0.15000000    0.15000000   -0.05000000          6/1000
   8:     0.15000000    0.15000000    0.05000000          6/1000
   9:     0.15000000    0.15000000    0.15000000          2/1000
          ...
 109:     0.45000000    0.45000000    0.45000000          2/1000

Wave functions: Plane wave expansion
  Cutoff energy: 500.000 eV
  Number of coefficients (min, max): 1769, 1802
  Pulay-stress correction: 0.000000 eV/Ang^3 (de/decut=0.000000)
  Using FFTW library
  Eigensolver: None  MatrixOperator buffer_size: default value or
                              see value of nblock in input file
Diagonalizer layout: Serial LAPACKOrthonormalizer layout: Serial LAPACK

Davidson(niter=1, smin=None, normalize=True)

Densities:
  Coarse grid: 20*20*20 grid
  Fine grid: 40*40*40 grid
  Total Charge: 0.000000

Density mixing:
  Method: sum
  Backend: pulay
  Linear mixing parameter: 0.05
  Mixing with 5 old densities
  Damping of long wave oscillations: 50

Hamiltonian:
  XC and Coulomb potentials evaluated on a 40*40*40 grid
  Using the PBE Exchange-Correlation functional

Total number of cores used: 32
Parallelization over k-points and spin: 32

Number of atoms: 8
Number of atomic orbitals: 72
Number of bands in calculation: 66
Bands to converge: occupied states only
Number of valence electrons: 64

... initialized

Initializing position-dependent things.

Density initialized from atomic densities
Creating initial wave functions:
  66 bands from LCAO basis set

           Fe
         Fe    Fe
             Fe
             Fe
           Fe    Fe
               Fe

Positions:
   0 Fe     0.000003    0.000003    0.000003
   1 Fe     1.300003    1.300003   -1.299997
   2 Fe     1.300003   -1.299997    1.300003
   3 Fe     2.600003    0.000003    0.000003
   4 Fe    -1.299997    1.300003    1.300003
   5 Fe     0.000003    2.600003    0.000003
   6 Fe     0.000003    0.000003    2.600003
   7 Fe     1.300003    1.300003    1.300003

Unit cell:
           periodic     x           y           z      points  spacing
  1. axis:    yes   -2.600000    2.600000    2.600000    20     0.1838
  2. axis:    yes    2.600000   -2.600000    2.600000    20     0.1838
  3. axis:    yes    2.600000    2.600000   -2.600000    20     0.1838

  Lengths:   4.503332   4.503332   4.503332
  Angles:  109.471221 109.471221 109.471221

Effective grid spacing dv^(1/3) = 0.2064

                     log10-error:    total        iterations:
           time      wfs    density  energy       fermi  poisson  magmom
iter:   1  16:59:02  +2.28   +inf   -65.516387    3               +14.4022
iter:   2  16:59:04  +0.40   +inf   -66.234506    3               +14.3602
iter:   3  16:59:06  -0.59   +inf   -66.357259    2               +14.3520
iter:   4  16:59:09  -0.63  -1.37   -66.644295    3               +13.9299
iter:   5  16:59:11  -0.18  -1.41   -66.286351    34              +14.0738
iter:   6  16:59:14  -1.46  -1.79   -66.559014    3               +14.0313
iter:   7  16:59:16  -0.73  -1.92   -66.953529    3               +13.6770
iter:   8  16:59:19  -1.34  -2.43   -66.969203    3               +13.6914
iter:   9  16:59:21  -2.15  -2.75   -66.976841    3               +13.7295
iter:  10  16:59:24  -2.26  -2.71   -66.970182    3               +13.7336
iter:  11  16:59:26  -3.11  -2.74   -66.976311    2               +13.7590
iter:  12  16:59:29  -2.84  -2.67   -66.972741    2               +13.6110
iter:  13  16:59:32  -3.52  -2.80   -66.974753    2               +13.6521
iter:  14  16:59:34  -4.11  -2.92   -66.973683    2               +13.6429
iter:  15  16:59:37  -3.07  -2.98   -66.971573    2               +13.5077
iter:  16  16:59:39  -3.75  -3.77   -66.971569    2               +13.5113
iter:  17  16:59:42  -4.55  -4.07   -66.971431    2               +13.5321
iter:  18  16:59:44  -4.73  -3.57   -66.971369    2               +13.5220
iter:  19  16:59:47  -5.04  -3.78   -66.971202    2               +13.5054
iter:  20  16:59:49  -5.57  -4.63   -66.971172    2               +13.5037
iter:  21  16:59:52  -6.10  -4.71   -66.971133    2               +13.5023
iter:  22  16:59:55  -5.80  -4.69   -66.971014    2               +13.4962
iter:  23  16:59:57  -6.06  -4.75   -66.970944    2               +13.4924
iter:  24  17:00:00  -6.35  -4.99   -66.970978    2               +13.4940
iter:  25  17:00:02  -6.58  -5.07   -66.970949    2               +13.4923
iter:  26  17:00:05  -6.86  -5.10   -66.970933    1               +13.4917
iter:  27  17:00:07  -6.24  -5.10   -66.970898    2               +13.4893
iter:  28  17:00:10  -6.31  -4.65   -66.970871    1               +13.4886
iter:  29  17:00:12  -6.75  -5.13   -66.970860    2               +13.4879
iter:  30  17:00:15  -7.08  -4.73   -66.970848    2               +13.4874
iter:  31  17:00:18  -6.85  -4.84   -66.970894    2               +13.4896
iter:  32  17:00:20  -7.82  -5.34   -66.970893    1               +13.4896

Converged after 32 iterations.

Dipole moment: (-0.000202, -0.000202, -0.000202) |e|*Ang

Total magnetic moment: 13.489591
Local magnetic moments:
   0 Fe 1.721544
   1 Fe 1.721544
   2 Fe 1.721544
   3 Fe 1.721544
   4 Fe 1.721544
   5 Fe 1.721544
   6 Fe 1.721544
   7 Fe 1.721544

Energy contributions relative to reference atoms: (reference = -276955.636799)

Kinetic:       +210.448077
Potential:     -172.062151
External:        +0.000000
XC:            -106.368262
Entropy (-ST):   -0.250283
Local:           +1.136583
Free energy:    -67.096035
Extrapolated:   -66.970893

Spin contamination: 0.198242 electrons
Fermi level: 14.48818

Warning: Showing only first 2 kpts
                      Up                     Down
 Kpt  Band  Eigenvalues  Occupancy  Eigenvalues  Occupancy
  0    30     13.73279    0.00600     15.65560    0.00000
  0    31     13.73280    0.00600     15.71906    0.00000
  0    32     14.34622    0.00483     16.10644    0.00000
  0    33     14.34712    0.00482     16.10649    0.00000

  1    30     13.71953    0.00200     15.66260    0.00000
  1    31     13.71953    0.00200     15.66260    0.00000
  1    32     14.06248    0.00197     16.08954    0.00000
  1    33     14.06248    0.00197     16.08954    0.00000

Forces in eV/Ang:
  0 Fe   -0.00000   -0.00000   -0.00000
  1 Fe   -0.00000   -0.00000   -0.00000
  2 Fe   -0.00000   -0.00000   -0.00000
  3 Fe   -0.00000   -0.00000   -0.00000
  4 Fe   -0.00000   -0.00000   -0.00000
  5 Fe   -0.00000   -0.00000   -0.00000
  6 Fe   -0.00000   -0.00000   -0.00000
  7 Fe   -0.00000   -0.00000   -0.00000

Stress tensor:
    -0.590386     0.000025     0.000025
     0.000025    -0.590386     0.000025
     0.000025     0.000025    -0.590386
Writing to fecu_id1_relaxed.gpw (mode='')

System changes: positions, cell

[...]

System changes: positions, cell

Initialize ...

Fe-setup:
  name: Iron
  id: 37abbd8d6c3c35915a9b583b742da910
  Z: 26
  valence: 8
  core: 18
  charge: 0.0
  file: /home/davidkl/gpaw-setups-0.9.20000/Fe.PBE.gz
  cutoffs: 1.06(comp), 2.06(filt), 2.67(core), lmax=2
  valence states:
                energy  radius
    4s(2.00)    -5.291   1.164
    4p(0.00)    -1.326   1.058
    3d(6.00)    -7.505   1.058
    *s          21.920   1.164
    *p          25.885   1.058
    *d          19.706   1.058

  Using partial waves for Fe as LCAO basis

Reference energy: -276955.636799

Spin-polarized calculation.
Magnetic moment:  17.600000

Occupation numbers:
  Fermi-Dirac: width=0.1000 eV

Convergence criteria:
  Maximum total energy change: 0.0005 eV / electron
  Maximum integral of absolute density change: 0.0001 electrons
  Maximum integral of absolute eigenstate change: 4e-08 eV^2
  Maximum number of iterations: 333

Symmetries present (total): 6

  ( 1  0  0)  ( 1  0  0)  ( 0  1  0)  ( 0  1  0)  ( 0  0  1)  ( 0  0  1)
  ( 0  1  0)  ( 0  0  1)  ( 1  0  0)  ( 0  0  1)  ( 1  0  0)  ( 0  1  0)
  ( 0  0  1)  ( 0  1  0)  ( 0  0  1)  ( 1  0  0)  ( 0  1  0)  ( 1  0  0)

1000 k-points: 10 x 10 x 10 Monkhorst-Pack grid
110 k-points in the irreducible part of the Brillouin zone
       k-points in crystal coordinates                weights
   0:     0.05000000    0.05000000   -0.05000000          6/1000
   1:     0.05000000    0.05000000    0.05000000          2/1000
   2:     0.15000000   -0.05000000   -0.05000000          6/1000
   3:     0.15000000    0.05000000   -0.15000000         12/1000
   4:     0.15000000    0.05000000   -0.05000000         12/1000
   5:     0.15000000    0.05000000    0.05000000          6/1000
   6:     0.15000000    0.15000000   -0.15000000          6/1000
   7:     0.15000000    0.15000000   -0.05000000          6/1000
   8:     0.15000000    0.15000000    0.05000000          6/1000
   9:     0.15000000    0.15000000    0.15000000          2/1000
          ...
 109:     0.45000000    0.45000000    0.45000000          2/1000

Wave functions: Plane wave expansion
  Cutoff energy: 500.000 eV
  Number of coefficients (min, max): 2295, 2334
  Pulay-stress correction: 0.000000 eV/Ang^3 (de/decut=0.000000)
  Using FFTW library
  Eigensolver: None  MatrixOperator buffer_size: default value or
                              see value of nblock in input file
Diagonalizer layout: Serial LAPACKOrthonormalizer layout: Serial LAPACK

Davidson(niter=1, smin=None, normalize=True)

Densities:
  Coarse grid: 21*21*21 grid
  Fine grid: 42*42*42 grid
  Total Charge: 0.000000

Density mixing:
  Method: sum
  Backend: pulay
  Linear mixing parameter: 0.05
  Mixing with 5 old densities
  Damping of long wave oscillations: 50

Hamiltonian:
  XC and Coulomb potentials evaluated on a 42*42*42 grid
  Using the PBE Exchange-Correlation functional

Total number of cores used: 32
Parallelization over k-points and spin: 32

Number of atoms: 8
Number of atomic orbitals: 72
Number of bands in calculation: 66
Bands to converge: occupied states only
Number of valence electrons: 64

... initialized

Initializing position-dependent things.

Density initialized from atomic densities
Creating initial wave functions:
  66 bands from LCAO basis set

           Fe
         Fe     Fe
             Fe
              Fe
           Fe     Fe
                Fe

Positions:
   0 Fe     0.000003    0.000003    0.000003
   1 Fe     1.416775    1.416775   -1.416851
   2 Fe     1.416775   -1.416851    1.416775
   3 Fe     2.833547   -0.000079   -0.000079
   4 Fe    -1.416851    1.416775    1.416775
   5 Fe    -0.000079    2.833547   -0.000079
   6 Fe    -0.000079   -0.000079    2.833547
   7 Fe     1.416693    1.416693    1.416693

Unit cell:
           periodic     x           y           z      points  spacing
  1. axis:    yes   -2.833707    2.833544    2.833544    21     0.1908
  2. axis:    yes    2.833544   -2.833707    2.833544    21     0.1908
  3. axis:    yes    2.833544    2.833544   -2.833707    21     0.1908

  Lengths:   4.907936   4.907936   4.907936
  Angles:  109.472776 109.472776 109.472776

Effective grid spacing dv^(1/3) = 0.2142

                     log10-error:    total        iterations:
           time      wfs    density  energy       fermi  poisson  magmom
iter:   1  17:28:54  +2.15   +inf   -70.598073    34              +16.8720
iter:   2  17:28:57  +0.37   +inf   -71.216873    2               +16.8428
iter:   3  17:29:00  -0.73   +inf   -71.316227    2               +16.8377
iter:   4  17:29:03  -0.75  -1.43   -71.577571    3               +16.6274
iter:   5  17:29:06  -0.47  -1.47   -71.465017    34              +16.9308
iter:   6  17:29:09  -1.80  -1.79   -71.662057    3               +17.0228
iter:   7  17:29:13  -1.33  -1.91   -72.020270    3               +17.1865
iter:   8  17:29:16  -1.84  -2.73   -72.025734    3               +17.2063
iter:   9  17:29:19  -2.73  -3.13   -72.027696    3               +17.2051
iter:  10  17:29:23  -2.72  -3.12   -72.028835    2               +17.2050
iter:  11  17:29:26  -2.91  -3.07   -72.030047    3               +17.2355
iter:  12  17:29:29  -3.29  -2.77   -72.030327    2               +17.2320
iter:  13  17:29:33  -2.59  -2.78   -72.031863    3               +17.1914
iter:  14  17:29:36  -2.50  -3.01   -72.037477    3               +17.1374
iter:  15  17:29:39  -2.03  -2.46   -72.032217    3               +17.2200
iter:  16  17:29:42  -3.95  -2.65   -72.032683    2               +17.2178
iter:  17  17:29:46  -4.29  -2.82   -72.031552    2               +17.2131
iter:  18  17:29:49  -4.60  -3.35   -72.030889    2               +17.2182
iter:  19  17:29:52  -4.53  -3.45   -72.030698    2               +17.2260
iter:  20  17:29:56  -4.46  -3.59   -72.030820    2               +17.2282
iter:  21  17:29:59  -3.89  -3.61   -72.031569    2               +17.2557
iter:  22  17:30:02  -4.14  -3.36   -72.031846    2               +17.2551
iter:  23  17:30:06  -4.89  -3.59   -72.031970    2               +17.2626
iter:  24  17:30:09  -5.15  -4.18   -72.031988    2               +17.2633
iter:  25  17:30:12  -5.88  -4.10   -72.032034    2               +17.2644
iter:  26  17:30:15  -5.95  -4.37   -72.032029    2               +17.2638
iter:  27  17:30:19  -6.98  -4.35   -72.032030    2               +17.2643
iter:  28  17:30:22  -6.79  -4.38   -72.032040    1               +17.2655
iter:  29  17:30:25  -6.19  -4.45   -72.032046    2               +17.2673
iter:  30  17:30:29  -6.37  -4.56   -72.032052    2               +17.2670
iter:  31  17:30:32  -7.50  -4.53   -72.032047    2               +17.2667

Converged after 31 iterations.

Dipole moment: (-0.000244, -0.000244, -0.000244) |e|*Ang

Total magnetic moment: 17.266699
Local magnetic moments:
   0 Fe 2.225499
   1 Fe 2.225488
   2 Fe 2.225488
   3 Fe 2.225492
   4 Fe 2.225488
   5 Fe 2.225492
   6 Fe 2.225492
   7 Fe 2.225516

Energy contributions relative to reference atoms: (reference = -276955.636799)

Kinetic:        +60.352120
Potential:      -50.839402
External:        +0.000000
XC:             -82.096383
Entropy (-ST):   -0.249842
Local:           +0.676539
Free energy:    -72.156968
Extrapolated:   -72.032047

Spin contamination: 0.461236 electrons
Fermi level: 10.12406

Warning: Showing only first 2 kpts
                      Up                     Down
 Kpt  Band  Eigenvalues  Occupancy  Eigenvalues  Occupancy
  0    30      9.22190    0.00600     11.72914    0.00000
  0    31      9.22225    0.00600     11.77184    0.00000
  0    32      9.93384    0.00522     12.02211    0.00000
  0    33      9.93518    0.00521     12.02242    0.00000

  1    30      9.21450    0.00200     11.73381    0.00000
  1    31      9.21450    0.00200     11.73381    0.00000
  1    32      9.71305    0.00197     12.01137    0.00000
  1    33      9.71305    0.00197     12.01137    0.00000

Forces in eV/Ang:
  0 Fe   -0.00000   -0.00000   -0.00000
  1 Fe   -0.00000   -0.00000   -0.00000
  2 Fe   -0.00000   -0.00000   -0.00000
  3 Fe    0.00000    0.00000    0.00000
  4 Fe   -0.00000   -0.00000   -0.00000
  5 Fe    0.00000    0.00000    0.00000
  6 Fe    0.00000    0.00000    0.00000
  7 Fe    0.00000    0.00000    0.00000

Stress tensor:
    -0.000782    -0.000009    -0.000009
    -0.000009    -0.000782    -0.000009
    -0.000009    -0.000009    -0.000782
Writing to fecu_id1_relaxed.gpw (mode='')

Writing to fecu_id1_relaxer_final.gpw (mode='')