User:   rasmus@AsusN550
Date:   Fri Nov 16 13:49:19 2018
Arch:   x86_64
Pid:    9585
Python: 3.6.3
gpaw:   /home/rasmus/anaconda3/lib/python3.6/site-packages/gpaw
_gpaw:  /home/rasmus/anaconda3/lib/python3.6/site-packages/
        _gpaw.cpython-36m-x86_64-linux-gnu.so
ase:    /home/rasmus/.local/lib/python3.6/site-packages/ase (version 3.16.2)
numpy:  /home/rasmus/.local/lib/python3.6/site-packages/numpy (version 1.15.1)
scipy:  /home/rasmus/.local/lib/python3.6/site-packages/scipy (version 1.1.0)
units:  Angstrom and eV
cores:  1

Input parameters:
  kpts: [6 6 6]
  mode: {ecut: 500.0,
         name: pw}
  nbands: -12
  occupations: {name: fermi-dirac,
                width: 0.1}
  spinpol: True
  xc: PBE

System changes: positions, numbers, cell, pbc, initial_charges, initial_magmoms

Initialize ...

Cu-setup:
  name: Copper
  id: f1c4d45d90492f1bbfdcb091e8418fdf
  Z: 29
  valence: 11
  core: 18
  charge: 0.0
  file: /usr/share/gpaw-setups/Cu.PBE.gz
  cutoffs: 1.06(comp), 2.06(filt), 2.43(core), lmax=2
  valence states:
                energy  radius
    4s(1.00)    -4.609   1.164
    4p(0.00)    -0.698   1.164
    3d(10.00)    -5.039   1.058
    *s          22.603   1.164
    *p          26.513   1.164
    *d          22.172   1.058

  Using partial waves for Cu as LCAO basis

Fe-setup:
  name: Iron
  id: 37abbd8d6c3c35915a9b583b742da910
  Z: 26
  valence: 8
  core: 18
  charge: 0.0
  file: /usr/share/gpaw-setups/Fe.PBE.gz
  cutoffs: 1.06(comp), 2.06(filt), 2.67(core), lmax=2
  valence states:
                energy  radius
    4s(2.00)    -5.291   1.164
    4p(0.00)    -1.326   1.058
    3d(6.00)    -7.505   1.058
    *s          21.920   1.164
    *p          25.885   1.058
    *d          19.706   1.058

[...]

Reference energy: -79640.906441

Spin-polarized calculation.
Magnetic moment: 0.000000

Occupation numbers:
  Fermi-Dirac: width=0.1000 eV

Convergence criteria:
  Maximum total energy change: 0.0005 eV / electron
  Maximum integral of absolute density change: 0.0001 electrons
  Maximum integral of absolute eigenstate change: 4e-08 eV^2
  Maximum number of iterations: 333

Symmetries present (total): 4

  ( 1  0  0)  ( 1  0  0)  (-1  0  0)  (-1  0  0)
  ( 0  1  0)  ( 0  0  1)  ( 0  0 -1)  ( 0 -1  0)
  ( 0  0  1)  ( 0  1  0)  ( 0 -1  0)  ( 0  0 -1)

216 k-points: 6 x 6 x 6 Monkhorst-Pack grid
63 k-points in the irreducible part of the Brillouin zone
       k-points in crystal coordinates                weights
   0:     0.08333333   -0.41666667   -0.41666667          2/216
   1:     0.08333333   -0.25000000   -0.41666667          4/216
   2:     0.08333333   -0.25000000   -0.25000000          2/216
   3:     0.08333333   -0.08333333   -0.41666667          4/216
   4:     0.08333333   -0.08333333   -0.25000000          4/216
   5:     0.08333333   -0.08333333   -0.08333333          2/216
   6:     0.08333333    0.08333333   -0.41666667          4/216
   7:     0.08333333    0.08333333   -0.25000000          4/216
   8:     0.08333333    0.08333333   -0.08333333          4/216
   9:     0.08333333    0.08333333    0.08333333          2/216
          ...
  62:     0.41666667    0.41666667    0.41666667          2/216

Wave functions: Plane wave expansion
  Cutoff energy: 500.000 eV
  Number of coefficients (min, max): 594, 610
  Pulay-stress correction: 0.000000 eV/Ang^3 (de/decut=0.000000)
  Using FFTW library
  ScaLapack parameters: grid=1x1, blocksize=None

Eigensolver
   Davidson(niter=1, smin=None, normalize=True)

Densities:
  Coarse grid: 24*12*12 grid
  Fine grid: 48*24*24 grid
  Total Charge: 0.000000

Density mixing:
  Method: sum
  Backend: pulay
  Linear mixing parameter: 0.05
  Mixing with 5 old densities
  Damping of long wave oscillations: 50

Hamiltonian:
  XC and Coulomb potentials evaluated on a 48*24*24 grid
  Using the PBE Exchange-Correlation functional

Total number of cores used: 1

Number of atoms: 2
Number of atomic orbitals: 18
Number of bands in calculation: 21
Bands to converge: occupied states only
Number of valence electrons: 19

... initialized

Initializing position-dependent things.

Density initialized from atomic densities
Creating initial wave functions:
  18 bands from LCAO basis set
  3 bands from random numbers

         Cu

[...]

Positions:
   0 Cu     0.000000    1.810000    1.810000    ( 0.0000,  0.0000,  0.0000)
   1 Fe     0.000000    0.000000    0.000000    ( 0.0000,  0.0000,  0.0000)

Unit cell:
           periodic     x           y           z      points  spacing
  1. axis:    yes    0.000000    3.620000    3.620000    24     0.1742
  2. axis:    yes    1.810000    0.000000    1.810000    12     0.1742
  3. axis:    yes    1.810000    1.810000    0.000000    12     0.1742

  Lengths:   5.119453   2.559727   2.559727
  Angles:   60.000000  60.000000  60.000000

Effective grid spacing dv^(1/3) = 0.1900

                     log10-error:    total        iterations:
           time      wfs    density  energy       fermi  poisson  magmom
iter:   1  13:49:32  +3.84   +inf   -19.989069    2               -0.0002
iter:   2  13:49:36  +0.08   +inf   -20.093669    2               -0.0000
iter:   3  13:49:41  -0.98   +inf   -20.106285    2               -0.0000
iter:   4  13:49:46  +0.61  -0.97   -12.750521    4               -0.0000
iter:   5  13:49:51  -0.81  -1.29   -12.265522    28              -0.0000
iter:   6  13:49:56  -0.20  -1.40   -12.066630    35              -0.0000
iter:   7  13:50:01  -2.06  -1.75   -12.012982    2               -0.0000
iter:   8  13:50:07  -2.35  -1.81   -11.937238    3               -0.0000
iter:   9  13:50:13  -1.86  -1.89   -11.861471    3               +0.0000
iter:  10  13:50:18  -2.22  -2.32   -11.861833    3               +0.0000
iter:  11  13:50:25  -2.62  -2.36   -11.862274    2               +0.0000
iter:  12  13:50:32  -3.00  -2.54   -11.862118    3               +0.0000
iter:  13  13:50:40  -2.64  -3.11   -11.860938    2               +0.0000
iter:  14  13:50:49  -3.80  -3.27   -11.860893    2               +0.0000
iter:  15  13:50:56  -4.46  -3.33   -11.860854    2               +0.0000
iter:  16  13:51:01  -4.62  -3.40   -11.860785    2               +0.0000
iter:  17  13:51:06  -5.12  -3.47   -11.860652    2               +0.0000
iter:  18  13:51:13  -4.40  -3.70   -11.860637    2               +0.0001
iter:  19  13:51:19  -5.76  -3.92   -11.860629    2               +0.0001
iter:  20  13:51:25  -5.79  -3.95   -11.860640    2               +0.0001
iter:  21  13:51:31  -5.19  -4.14   -11.860663    2               +0.0001
iter:  22  13:51:36  -6.81  -4.28   -11.860665    2               +0.0001
iter:  23  13:51:41  -6.21  -4.37   -11.860668    2               +0.0002
iter:  24  13:51:47  -7.63  -4.56   -11.860665    2               +0.0002

Converged after 24 iterations.

Dipole moment: (0.000000, -0.000000, -0.000000) |e|*Ang

Total magnetic moment: (0.000000, 0.000000, 0.000108)
Local magnetic moments:
   0 Cu ( 0.000000,  0.000000,  0.000003)
   1 Fe ( 0.000000,  0.000000,  0.000082)

Energy contributions relative to reference atoms: (reference = -79640.906441)

Kinetic:        -15.233375
Potential:      +11.929003
External:        +0.000000
XC:              -8.668074
Entropy (-ST):   -0.133809
Local:           +0.178685
Free energy:    -11.927570
Extrapolated:   -11.860665

Spin contamination: 0.000003 electrons
Fermi level: 8.65266

Warning: Showing only first 2 kpts
                      Up                     Down
 Kpt  Band  Eigenvalues  Occupancy  Eigenvalues  Occupancy
  0     7      8.37417    0.00872      8.37422    0.00872
  0     8      8.85405    0.00109      8.85417    0.00109
  0     9      8.87384    0.00091      8.87389    0.00091
  0    10      9.53089    0.00000      9.53098    0.00000

  1     7      7.36848    0.01852      7.36851    0.01852
  1     8      8.21749    0.01828      8.21758    0.01828
  1     9      8.95799    0.00083      8.95807    0.00083
  1    10      9.52214    0.00000      9.52223    0.00000

Forces in eV/Ang:
  0 Cu    0.00000    0.00000    0.00000
  1 Fe    0.00000    0.00000    0.00000

Stress tensor:
     0.071249     0.022569     0.022569
     0.022569     0.066366    -0.019002
     0.022569    -0.019002     0.066366
Writing to 1fe1cu_relaxed.gpw (mode='')

System changes: positions, cell

[...]

  ( 1  0  0)  ( 1  0  0)
  ( 0  1  0)  ( 0  0  1)
  ( 0  0  1)  ( 0  1  0)

[...]

Stress tensor:
     0.084568     0.022058     0.022058
     0.022058     0.079605    -0.018865
     0.022058    -0.018865     0.079605
System changes: positions, cell

[...]

System changes: positions, cell

Initialize ...

Cu-setup:
  name: Copper
  id: f1c4d45d90492f1bbfdcb091e8418fdf
  Z: 29
  valence: 11
  core: 18
  charge: 0.0
  file: /usr/share/gpaw-setups/Cu.PBE.gz
  cutoffs: 1.06(comp), 2.06(filt), 2.43(core), lmax=2
  valence states:
                energy  radius
    4s(1.00)    -4.609   1.164
    4p(0.00)    -0.698   1.164
    3d(10.00)    -5.039   1.058
    *s          22.603   1.164
    *p          26.513   1.164
    *d          22.172   1.058

[...]

Fe-setup:
  name: Iron
  id: 37abbd8d6c3c35915a9b583b742da910
  Z: 26
  valence: 8
  core: 18
  charge: 0.0
  file: /usr/share/gpaw-setups/Fe.PBE.gz
  cutoffs: 1.06(comp), 2.06(filt), 2.67(core), lmax=2
  valence states:
                energy  radius
    4s(2.00)    -5.291   1.164
    4p(0.00)    -1.326   1.058
    3d(6.00)    -7.505   1.058
    *s          21.920   1.164
    *p          25.885   1.058
    *d          19.706   1.058

  Using partial waves for Fe as LCAO basis

Reference energy: -79640.906441

Spin-polarized calculation.
Magnetic moment: 0.000000

Occupation numbers:
  Fermi-Dirac: width=0.1000 eV

Convergence criteria:
  Maximum total energy change: 0.0005 eV / electron
  Maximum integral of absolute density change: 0.0001 electrons
  Maximum integral of absolute eigenstate change: 4e-08 eV^2
  Maximum number of iterations: 333

Symmetries present (total): 4

  ( 1  0  0)  ( 1  0  0)  (-1  0  0)  (-1  0  0)
  ( 0  1  0)  ( 0  0  1)  ( 0  0 -1)  ( 0 -1  0)
  ( 0  0  1)  ( 0  1  0)  ( 0 -1  0)  ( 0  0 -1)

216 k-points: 6 x 6 x 6 Monkhorst-Pack grid
63 k-points in the irreducible part of the Brillouin zone
       k-points in crystal coordinates                weights
   0:     0.08333333   -0.41666667   -0.41666667          2/216
   1:     0.08333333   -0.25000000   -0.41666667          4/216
   2:     0.08333333   -0.25000000   -0.25000000          2/216
   3:     0.08333333   -0.08333333   -0.41666667          4/216
   4:     0.08333333   -0.08333333   -0.25000000          4/216
   5:     0.08333333   -0.08333333   -0.08333333          2/216
   6:     0.08333333    0.08333333   -0.41666667          4/216
   7:     0.08333333    0.08333333   -0.25000000          4/216
   8:     0.08333333    0.08333333   -0.08333333          4/216
   9:     0.08333333    0.08333333    0.08333333          2/216
          ...
  62:     0.41666667    0.41666667    0.41666667          2/216

Wave functions: Plane wave expansion
  Cutoff energy: 500.000 eV
  Number of coefficients (min, max): 555, 578
  Pulay-stress correction: 0.000000 eV/Ang^3 (de/decut=0.000000)
  Using FFTW library
  ScaLapack parameters: grid=1x1, blocksize=None

Eigensolver
   Davidson(niter=1, smin=None, normalize=True)

Densities:
  Coarse grid: 24*10*10 grid
  Fine grid: 48*20*20 grid
  Total Charge: 0.000000

Density mixing:
  Method: sum
  Backend: pulay
  Linear mixing parameter: 0.05
  Mixing with 5 old densities
  Damping of long wave oscillations: 50

Hamiltonian:
  XC and Coulomb potentials evaluated on a 48*20*20 grid
  Using the PBE Exchange-Correlation functional

Total number of cores used: 1

Number of atoms: 2
Number of atomic orbitals: 18
Number of bands in calculation: 21
Bands to converge: occupied states only
Number of valence electrons: 19

... initialized

Initializing position-dependent things.

Density initialized from atomic densities
Creating initial wave functions:
  18 bands from LCAO basis set
  3 bands from random numbers

[...]

       Fe

Positions:
   0 Cu    -0.052159    1.798574    1.798574    ( 0.0000,  0.0000,  0.0000)
   1 Fe     0.000000   -0.000000   -0.000000    ( 0.0000,  0.0000,  0.0000)

Unit cell:
           periodic     x           y           z      points  spacing
  1. axis:    yes   -0.104317    3.597148    3.597148    24     0.1754
  2. axis:    yes    1.741276   -0.004304    1.750793    10     0.2031
  3. axis:    yes    1.741276    1.750793   -0.004304    10     0.2031

  Lengths:   5.088205   2.469279   2.469279
  Angles:   60.343329  60.950501  60.950501

Effective grid spacing dv^(1/3) = 0.2103

                     log10-error:    total        iterations:
           time      wfs    density  energy       fermi  poisson  magmom
iter:   1  14:02:30  +3.85   +inf   -20.259013    34              +0.0002
iter:   2  14:02:35  +0.08   +inf   -20.365821    2               +0.0000
iter:   3  14:02:41  -0.96   +inf   -20.378938    2               +0.0000
iter:   4  14:02:45  +0.58  -0.97   -12.818895    4               -0.0000
iter:   5  14:02:51  -0.84  -1.29   -12.355558    31              -0.0000
iter:   6  14:02:56  -0.17  -1.39   -12.138790    34              -0.0000
iter:   7  14:03:01  -1.91  -1.76   -12.055219    3               -0.0000
iter:   8  14:03:05  -2.56  -1.84   -12.001596    3               -0.0000
iter:   9  14:03:10  -1.81  -1.90   -11.929940    3               -0.0000
iter:  10  14:03:15  -1.93  -2.25   -11.922978    2               -0.0000
iter:  11  14:03:20  -1.89  -2.31   -11.930373    3               -0.0000
iter:  12  14:03:25  -2.56  -2.59   -11.924530    2               -0.0000
iter:  13  14:03:30  -2.47  -2.95   -11.921340    3               -0.0001
iter:  14  14:03:35  -4.06  -3.19   -11.921381    2               -0.0001
iter:  15  14:03:40  -4.36  -3.21   -11.921343    2               -0.0001
iter:  16  14:03:45  -4.27  -3.26   -11.921221    2               -0.0001
iter:  17  14:03:50  -5.04  -3.32   -11.921136    2               -0.0001
iter:  18  14:03:55  -4.26  -3.36   -11.920869    2               -0.0001
iter:  19  14:04:00  -4.97  -3.81   -11.920872    2               -0.0002
iter:  20  14:04:04  -5.83  -3.90   -11.920890    1               -0.0002
iter:  21  14:04:10  -6.56  -3.92   -11.920899    2               -0.0002
iter:  22  14:04:14  -6.31  -3.93   -11.920899    2               -0.0003
iter:  23  14:04:20  -6.39  -4.06   -11.920922    2               -0.0003
iter:  24  14:04:25  -7.43  -4.13   -11.920931    2               -0.0004

Converged after 24 iterations.

Dipole moment: (-0.000000, -0.000000, -0.000000) |e|*Ang

Total magnetic moment: (0.000000, 0.000000, -0.000203)
Local magnetic moments:
   0 Cu ( 0.000000,  0.000000, -0.000006)
   1 Fe ( 0.000000,  0.000000, -0.000158)

Energy contributions relative to reference atoms: (reference = -79640.906441)

Kinetic:         -9.950898
Potential:       +7.728901
External:        +0.000000
XC:              -9.825142
Entropy (-ST):   -0.125432
Local:           +0.188925
Free energy:    -11.983647
Extrapolated:   -11.920931

Spin contamination: 0.000006 electrons
Fermi level: 9.50849

Warning: Showing only first 2 kpts
                      Up                     Down
 Kpt  Band  Eigenvalues  Occupancy  Eigenvalues  Occupancy
  0     7      9.21241    0.00880      9.21231    0.00880
  0     8      9.68622    0.00134      9.68599    0.00134
  0     9      9.70880    0.00110      9.70870    0.00110
  0    10     10.55268    0.00000     10.55251    0.00000

  1     7      8.18693    0.01852      8.18688    0.01852
  1     8      9.01854    0.01838      9.01835    0.01838
  1     9      9.78720    0.00107      9.78706    0.00108
  1    10     10.34633    0.00000     10.34618    0.00000

Forces in eV/Ang:
  0 Cu    0.00000    0.00000    0.00000
  1 Fe    0.00000    0.00000    0.00000

Stress tensor:
     0.000714    -0.000054    -0.000054
    -0.000054    -0.001563    -0.000098
    -0.000054    -0.000098    -0.001563
Writing to 1fe1cu_relaxed.gpw (mode='')

Writing to 1fe1cu_relaxer_final.gpw (mode='')

Date: Fri Nov 16 14:04:31 2018