User:   rasmus@AsusN550
Date:   Thu Nov 22 16:02:05 2018
Arch:   x86_64
Pid:    13117
Python: 3.6.3
gpaw:   /home/rasmus/anaconda3/lib/python3.6/site-packages/gpaw
_gpaw:  /home/rasmus/anaconda3/lib/python3.6/site-packages/
        _gpaw.cpython-36m-x86_64-linux-gnu.so
ase:    /home/rasmus/.local/lib/python3.6/site-packages/ase (version 3.16.2)
numpy:  /home/rasmus/.local/lib/python3.6/site-packages/numpy (version 1.15.1)
scipy:  /home/rasmus/.local/lib/python3.6/site-packages/scipy (version 1.1.0)
units:  Angstrom and eV
cores:  1

Input parameters:
  kpts: [8 8 8]
  mode: {ecut: 600.0,
         name: pw}
  occupations: {name: fermi-dirac,
                width: 0.1}
  random: True
  xc: PBE

System changes: positions, numbers, cell, pbc, initial_charges, initial_magmoms

Initialize ...

Cu-setup:
  name: Copper
  id: f1c4d45d90492f1bbfdcb091e8418fdf
  Z: 29
  valence: 11
  core: 18
  charge: 0.0
  file: /usr/share/gpaw-setups/Cu.PBE.gz
  cutoffs: 1.06(comp), 2.06(filt), 2.43(core), lmax=2
  valence states:
                energy  radius
    4s(1.00)    -4.609   1.164
    4p(0.00)    -0.698   1.164
    3d(10.00)    -5.039   1.058
    *s          22.603   1.164
    *p          26.513   1.164
    *d          22.172   1.058

  Using partial waves for Cu as LCAO basis

Fe-setup:
  name: Iron
  id: 37abbd8d6c3c35915a9b583b742da910
  Z: 26
  valence: 8
  core: 18
  charge: 0.0
  file: /usr/share/gpaw-setups/Fe.PBE.gz
  cutoffs: 1.06(comp), 2.06(filt), 2.67(core), lmax=2
  valence states:
                energy  radius
    4s(2.00)    -5.291   1.164
    4p(0.00)    -1.326   1.058
    3d(6.00)    -7.505   1.058
    *s          21.920   1.164
    *p          25.885   1.058
    *d          19.706   1.058

  Using partial waves for Fe as LCAO basis

Reference energy: -79640.906441

Spin-paired calculation

Occupation numbers:
  Fermi-Dirac: width=0.1000 eV

Convergence criteria:
  Maximum total energy change: 0.0005 eV / electron
  Maximum integral of absolute density change: 0.0001 electrons
  Maximum integral of absolute eigenstate change: 4e-08 eV^2
  Maximum number of iterations: 333

Symmetries present (total): 4

  ( 1  0  0)  ( 1  0  0)  (-1  0  0)  (-1  0  0)
  ( 0  1  0)  ( 0  0  1)  ( 0  0 -1)  ( 0 -1  0)
  ( 0  0  1)  ( 0  1  0)  ( 0 -1  0)  ( 0  0 -1)

512 k-points: 8 x 8 x 8 Monkhorst-Pack grid
144 k-points in the irreducible part of the Brillouin zone
       k-points in crystal coordinates                weights
   0:     0.06250000   -0.43750000   -0.43750000          2/512
   1:     0.06250000   -0.31250000   -0.43750000          4/512
   2:     0.06250000   -0.31250000   -0.31250000          2/512
   3:     0.06250000   -0.18750000   -0.43750000          4/512
   4:     0.06250000   -0.18750000   -0.31250000          4/512
   5:     0.06250000   -0.18750000   -0.18750000          2/512
   6:     0.06250000   -0.06250000   -0.43750000          4/512
   7:     0.06250000   -0.06250000   -0.31250000          4/512
   8:     0.06250000   -0.06250000   -0.18750000          4/512
   9:     0.06250000   -0.06250000   -0.06250000          2/512
          ...
 143:     0.43750000    0.43750000    0.43750000          2/512

Wave functions: Plane wave expansion
  Cutoff energy: 600.000 eV
  Number of coefficients (min, max): 726, 759
  Pulay-stress correction: 0.000000 eV/Ang^3 (de/decut=0.000000)
  Using FFTW library
  ScaLapack parameters: grid=1x1, blocksize=None

Eigensolver
   Davidson(niter=1, smin=None, normalize=True)

Densities:
  Coarse grid: 24*12*12 grid
  Fine grid: 48*24*24 grid
  Total Charge: 0.000000

Density mixing:
  Method: separate
  Backend: pulay
  Linear mixing parameter: 0.05
  Mixing with 5 old densities
  Damping of long wave oscillations: 50

Hamiltonian:
  XC and Coulomb potentials evaluated on a 48*24*24 grid
  Using the PBE Exchange-Correlation functional

Total number of cores used: 1

Number of atoms: 2
Number of atomic orbitals: 18
Number of bands in calculation: 18
Bands to converge: occupied states only
Number of valence electrons: 19

... initialized

Initializing position-dependent things.

Density initialized from atomic densities
Creating initial wave functions:
  18 bands from LCAO basis set

         Cu

       Fe

Positions:
   0 Cu    -0.052159    1.798574    1.798574    ( 0.0000,  0.0000,  0.0000)
   1 Fe     0.000000   -0.000000   -0.000000    ( 0.0000,  0.0000,  0.0000)

Unit cell:
           periodic     x           y           z      points  spacing
  1. axis:    yes   -0.104317    3.597148    3.597148    24     0.1754
  2. axis:    yes    1.741276   -0.004304    1.750793    12     0.1692
  3. axis:    yes    1.741276    1.750793   -0.004304    12     0.1692

  Lengths:   5.088205   2.469279   2.469279
  Angles:   60.343329  60.950501  60.950501

Effective grid spacing dv^(1/3) = 0.1862

                     log10-error:    total        iterations:
           time      wfs    density  energy       fermi  poisson
iter:   1  16:02:17  +2.19   +inf   -20.235142    2
iter:   2  16:02:22  +0.31   +inf   -20.383848    2
iter:   3  16:02:27  -0.80   +inf   -20.404226    2
iter:   4  16:02:32  +0.73  -0.97   -12.863042    4
iter:   5  16:02:38  -0.62  -1.29   -12.404445    32
iter:   6  16:02:42  +0.03  -1.39   -12.212953    34
iter:   7  16:02:47  -1.76  -1.74   -12.164753    2
iter:   8  16:02:53  -2.12  -1.78   -12.062931    3
iter:   9  16:02:58  -1.99  -1.89   -12.022557    2
iter:  10  16:03:04  -2.08  -2.10   -11.957612    4
iter:  11  16:03:09  -2.48  -2.38   -11.955215    3
iter:  12  16:03:14  -1.87  -2.40   -11.959404    3
iter:  13  16:03:20  -2.71  -2.75   -11.953490    3
iter:  14  16:03:25  -3.87  -3.18   -11.953266    3
iter:  15  16:03:30  -3.16  -3.20   -11.953198    2
iter:  16  16:03:35  -3.80  -3.31   -11.953167    2
iter:  17  16:03:41  -4.19  -3.41   -11.953165    3
iter:  18  16:03:46  -4.47  -3.53   -11.953146    2
iter:  19  16:03:53  -5.42  -3.60   -11.953135    2
iter:  20  16:03:58  -5.77  -3.80   -11.953154    2
iter:  21  16:04:08  -5.90  -3.93   -11.953169    2
iter:  22  16:04:15  -5.23  -3.96   -11.953189    2
iter:  23  16:04:21  -6.52  -4.41   -11.953183    2
iter:  24  16:04:27  -7.38  -4.69   -11.953181    2
iter:  25  16:04:34  -7.46  -4.74   -11.953180    2

Converged after 25 iterations.

Dipole moment: (-0.000000, -0.000000, -0.000000) |e|*Ang

Energy contributions relative to reference atoms: (reference = -79640.906441)

Kinetic:         -9.798143
Potential:       +7.592561
External:        +0.000000
XC:              -9.841483
Entropy (-ST):   -0.118771
Local:           +0.153270
Free energy:    -12.012566
Extrapolated:   -11.953180

Fermi level: 9.50442

Warning: Showing only first 2 kpts
 Kpt  Band  Eigenvalues  Occupancy
  0     7      9.20379    0.00744
  0     8      9.66910    0.00126
  0     9      9.78424    0.00045
  0    10     10.59205    0.00000

  1     7      8.61627    0.01562
  1     8      9.17565    0.01506
  1     9      9.79715    0.00079
  1    10     10.40760    0.00000

Writing to Si_gs.gpw (mode='')