User:   rasmus@AsusN550
Date:   Tue Dec  4 14:35:11 2018
Arch:   x86_64
Pid:    13014
Python: 3.6.3
gpaw:   /home/rasmus/anaconda3/lib/python3.6/site-packages/gpaw
_gpaw:  /home/rasmus/anaconda3/lib/python3.6/site-packages/
        _gpaw.cpython-36m-x86_64-linux-gnu.so
ase:    /home/rasmus/anaconda3/lib/python3.6/site-packages/ase (version 3.17.0)
numpy:  /home/rasmus/.local/lib/python3.6/site-packages/numpy (version 1.15.1)
scipy:  /home/rasmus/.local/lib/python3.6/site-packages/scipy (version 1.1.0)
units:  Angstrom and eV
cores:  1

Input parameters:
  kpts: [8 8 8]
  mode: {ecut: 600.0,
         name: pw}
  occupations: {name: fermi-dirac,
                width: 0.1}
  random: True
  xc: PBE

System changes: positions, numbers, cell, pbc, initial_charges, initial_magmoms

Initialize ...

Fe-setup:
  name: Iron
  id: 37abbd8d6c3c35915a9b583b742da910
  Z: 26
  valence: 8
  core: 18
  charge: 0.0
  file: /usr/share/gpaw-setups/Fe.PBE.gz
  cutoffs: 1.06(comp), 2.06(filt), 2.67(core), lmax=2
  valence states:
                energy  radius
    4s(2.00)    -5.291   1.164
    4p(0.00)    -1.326   1.058
    3d(6.00)    -7.505   1.058
    *s          21.920   1.164
    *p          25.885   1.058
    *d          19.706   1.058

  Using partial waves for Fe as LCAO basis

Reference energy: -34619.454600

Spin-polarized calculation.
Magnetic moment: 2.200000

Occupation numbers:
  Fermi-Dirac: width=0.1000 eV

Convergence criteria:
  Maximum total energy change: 0.0005 eV / electron
  Maximum integral of absolute density change: 0.0001 electrons
  Maximum integral of absolute eigenstate change: 4e-08 eV^2
  Maximum number of iterations: 333

Symmetries present (total): 48

  ( 1  1  1)  ( 1  1  1)  ( 1  1  1)  ( 1  1  1)  ( 1  1  1)  ( 1  1  1)
  ( 0  0 -1)  ( 0  0 -1)  ( 0 -1  0)  ( 0 -1  0)  (-1  0  0)  (-1  0  0)
  ( 0 -1  0)  (-1  0  0)  ( 0  0 -1)  (-1  0  0)  ( 0  0 -1)  ( 0 -1  0)

[...]

  ( 0 -1  0)  ( 0 -1  0)  ( 0 -1  0)  ( 0 -1  0)  ( 0 -1  0)  ( 0 -1  0)
  ( 1  1  1)  ( 1  1  1)  ( 0  0 -1)  ( 0  0 -1)  (-1  0  0)  (-1  0  0)
  ( 0  0 -1)  (-1  0  0)  ( 1  1  1)  (-1  0  0)  ( 1  1  1)  ( 0  0 -1)

  (-1  0  0)  (-1  0  0)  (-1  0  0)  (-1  0  0)  (-1  0  0)  (-1  0  0)
  ( 1  1  1)  ( 1  1  1)  ( 0  0 -1)  ( 0  0 -1)  ( 0 -1  0)  ( 0 -1  0)
  ( 0  0 -1)  ( 0 -1  0)  ( 1  1  1)  ( 0 -1  0)  ( 1  1  1)  ( 0  0 -1)

  (-1 -1 -1)  (-1 -1 -1)  (-1 -1 -1)  (-1 -1 -1)  (-1 -1 -1)  (-1 -1 -1)
  ( 1  0  0)  ( 1  0  0)  ( 0  1  0)  ( 0  1  0)  ( 0  0  1)  ( 0  0  1)
  ( 0  1  0)  ( 0  0  1)  ( 1  0  0)  ( 0  0  1)  ( 1  0  0)  ( 0  1  0)

512 k-points: 8 x 8 x 8 Monkhorst-Pack grid
26 k-points in the irreducible part of the Brillouin zone
       k-points in crystal coordinates                weights
   0:     0.06250000    0.06250000   -0.06250000          6/512
   1:     0.18750000   -0.06250000   -0.06250000          8/512
   2:     0.18750000    0.06250000   -0.06250000         24/512
   3:     0.18750000    0.18750000   -0.18750000          6/512
   4:     0.31250000   -0.06250000   -0.06250000         24/512
   5:     0.31250000    0.06250000   -0.18750000         24/512
   6:     0.31250000    0.06250000   -0.06250000         24/512
   7:     0.31250000    0.18750000   -0.18750000         24/512
   8:     0.31250000    0.31250000   -0.31250000          6/512
   9:     0.31250000    0.31250000    0.18750000         12/512
          ...
  25:     0.43750000    0.43750000    0.43750000          8/512

Wave functions: Plane wave expansion
  Cutoff energy: 600.000 eV
  Number of coefficients (min, max): 377, 402
  Pulay-stress correction: 0.000000 eV/Ang^3 (de/decut=0.000000)
  Using FFTW library
  ScaLapack parameters: grid=1x1, blocksize=None

Eigensolver
   Davidson(niter=1, smin=None, normalize=True)

Densities:
  Coarse grid: 12*12*12 grid
  Fine grid: 24*24*24 grid
  Total Charge: 0.000000

Density mixing:
  Method: sum
  Backend: pulay
  Linear mixing parameter: 0.05
  Mixing with 5 old densities
  Damping of long wave oscillations: 50

Hamiltonian:
  XC and Coulomb potentials evaluated on a 24*24*24 grid
  Using the PBE Exchange-Correlation functional

Total number of cores used: 1

Number of atoms: 1
Number of atomic orbitals: 9
Number of bands in calculation: 9
Bands to converge: occupied states only
Number of valence electrons: 8

... initialized

Initializing position-dependent things.

Density initialized from atomic densities
Creating initial wave functions:
  9 bands from LCAO basis set

       Fe

Positions:
   0 Fe     0.000000    0.000000    0.000000    ( 0.0000,  0.0000,  2.2000)

Unit cell:
           periodic     x           y           z      points  spacing
  1. axis:    yes   -1.430000    1.430000    1.430000    12     0.1685
  2. axis:    yes    1.430000   -1.430000    1.430000    12     0.1685
  3. axis:    yes    1.430000    1.430000   -1.430000    12     0.1685

  Lengths:   2.476833   2.476833   2.476833
  Angles:  109.471221 109.471221 109.471221

Effective grid spacing dv^(1/3) = 0.1892

                     log10-error:    total        iterations:
           time      wfs    density  energy       fermi  poisson  magmom
iter:   1  14:35:14  +2.35   +inf    -8.839983    2               +2.1188
iter:   2  14:35:15  +0.39   +inf    -8.916729    2               +2.1164
iter:   3  14:35:16  -0.82   +inf    -8.927202    2               +2.1162
iter:   4  14:35:19  -0.82  -1.44    -8.963709    3               +2.1033
iter:   5  14:35:20  -0.60  -1.49    -8.955860    31              +2.1282
iter:   6  14:35:23  -1.34  -1.78    -8.993218    4               +2.1548
iter:   7  14:35:24  -1.03  -1.89    -9.024442    4               +2.1564
iter:   8  14:35:26  -1.96  -2.60    -9.025238    3               +2.1604
iter:   9  14:35:28  -2.42  -3.04    -9.025514    3               +2.1641
iter:  10  14:35:29  -2.48  -2.60    -9.025430    3               +2.1613
iter:  11  14:35:31  -3.37  -2.87    -9.025713    2               +2.1630
iter:  12  14:35:32  -3.24  -2.95    -9.025945    3               +2.1652
iter:  13  14:35:33  -4.22  -3.41    -9.025970    1               +2.1649
iter:  14  14:35:34  -3.92  -3.40    -9.025849    3               +2.1652
iter:  15  14:35:36  -4.66  -3.16    -9.025846    2               +2.1652
iter:  16  14:35:37  -4.49  -3.15    -9.025935    2               +2.1651
iter:  17  14:35:38  -4.70  -3.50    -9.025945    2               +2.1653
iter:  18  14:35:39  -4.96  -3.39    -9.025947    1               +2.1654
iter:  19  14:35:40  -4.01  -3.41    -9.025899    2               +2.1672
iter:  20  14:35:42  -4.22  -3.35    -9.025940    2               +2.1665
iter:  21  14:35:43  -4.98  -3.74    -9.025928    2               +2.1671
iter:  22  14:35:45  -5.48  -3.76    -9.025930    2               +2.1673
iter:  23  14:35:46  -6.28  -3.98    -9.025929    2               +2.1674
iter:  24  14:35:47  -6.52  -4.00    -9.025929    2               +2.1674
iter:  25  14:35:49  -6.12  -4.03    -9.025931    2               +2.1672
iter:  26  14:35:50  -5.30  -4.20    -9.025940    2               +2.1667
iter:  27  14:35:51  -5.95  -4.41    -9.025936    2               +2.1669
iter:  28  14:35:53  -6.76  -4.49    -9.025937    2               +2.1668
iter:  29  14:35:54  -6.80  -4.60    -9.025938    2               +2.1668
iter:  30  14:35:55  -7.31  -4.76    -9.025937    2               +2.1668
iter:  31  14:35:57  -7.23  -4.97    -9.025937    2               +2.1668
iter:  32  14:35:57  -8.21  -5.44    -9.025937    1               +2.1668

Converged after 32 iterations.

Dipole moment: (0.000000, 0.000000, -0.000000) |e|*Ang

Total magnetic moment: (0.000000, 0.000000, 2.166467)
Local magnetic moments:
   0 Fe ( 0.000000,  0.000000,  2.255245)

Energy contributions relative to reference atoms: (reference = -34619.454600)

Kinetic:         +6.294127
Potential:       -5.345278
External:        +0.000000
XC:             -10.032114
Entropy (-ST):   -0.026308
Local:           +0.070482
Free energy:     -9.039091
Extrapolated:    -9.025937

Spin contamination: 0.072609 electrons
Fermi level: 9.73767

Warning: Showing only first 2 kpts
                      Up                     Down
 Kpt  Band  Eigenvalues  Occupancy  Eigenvalues  Occupancy
  0     2      7.47651    0.01172      9.37464    0.01142
  0     3      7.56217    0.01172      9.48144    0.01088
  0     4      8.49376    0.01172     11.19955    0.00000
  0     5      8.68629    0.01172     11.45140    0.00000

  1     2      7.27703    0.01562      9.14043    0.01559
  1     3      8.05699    0.01562     10.01361    0.00093
  1     4      8.56820    0.01562     11.28328    0.00000
  1     5      8.56870    0.01562     11.28367    0.00000

Writing to Si_gs.gpw (mode='')