User:   rasmus@AsusN550
Date:   Fri Dec 14 17:30:12 2018
Arch:   x86_64
Pid:    17847
Python: 3.6.3
gpaw:   /home/rasmus/anaconda3/lib/python3.6/site-packages/gpaw
_gpaw:  /home/rasmus/anaconda3/lib/python3.6/site-packages/
        _gpaw.cpython-36m-x86_64-linux-gnu.so
ase:    /home/rasmus/anaconda3/lib/python3.6/site-packages/ase (version 3.17.0)
numpy:  /home/rasmus/.local/lib/python3.6/site-packages/numpy (version 1.15.1)
scipy:  /home/rasmus/.local/lib/python3.6/site-packages/scipy (version 1.1.0)
units:  Angstrom and eV
cores:  1

Reading from fecu_v2_gs.gpw
Read dipole, energy, free_energy, magmom, magmoms
Reading input parameters:
  kpts: [8 8 8]
  mode: {ecut: 600.0,
         name: pw}
  occupations: {name: fermi-dirac,
                width: 0.1}
  random: True
  spinpol: True
  xc: PBE

Initialize ...

Fe-setup:
  name: Iron
  id: 37abbd8d6c3c35915a9b583b742da910
  Z: 26
  valence: 8
  core: 18
  charge: 0.0
  file: /usr/share/gpaw-setups/Fe.PBE.gz
  cutoffs: 1.06(comp), 2.06(filt), 2.67(core), lmax=2
  valence states:
                energy  radius
    4s(2.00)    -5.291   1.164
    4p(0.00)    -1.326   1.058
    3d(6.00)    -7.505   1.058
    *s          21.920   1.164
    *p          25.885   1.058
    *d          19.706   1.058

  Using partial waves for Fe as LCAO basis

Cu-setup:
  name: Copper
  id: f1c4d45d90492f1bbfdcb091e8418fdf
  Z: 29
  valence: 11
  core: 18
  charge: 0.0
  file: /usr/share/gpaw-setups/Cu.PBE.gz
  cutoffs: 1.06(comp), 2.06(filt), 2.43(core), lmax=2
  valence states:
                energy  radius
    4s(1.00)    -4.609   1.164
    4p(0.00)    -0.698   1.164
    3d(10.00)    -5.039   1.058
    *s          22.603   1.164
    *p          26.513   1.164
    *d          22.172   1.058

[...]

Reference energy: -318563.625764

Spin-polarized calculation.
Magnetic moment: 8.800000

Occupation numbers:
  Fermi-Dirac: width=0.1000 eV

Convergence criteria:
  Maximum total energy change: 0.0005 eV / electron
  Maximum integral of absolute density change: 0.0001 electrons
  Maximum integral of absolute eigenstate change: 4e-08 eV^2
  Maximum number of iterations: 333

Symmetries present (total): 2

  ( 1  0  0)  ( 1  0  0)
  ( 0  1  0)  ( 0  0  1)
  ( 0  0  1)  ( 0  1  0)

512 k-points: 8 x 8 x 8 Monkhorst-Pack grid
144 k-points in the irreducible part of the Brillouin zone
       k-points in crystal coordinates                weights
   0:     0.06250000   -0.43750000   -0.43750000          2/512
   1:     0.06250000   -0.31250000   -0.43750000          4/512
   2:     0.06250000   -0.31250000   -0.31250000          2/512
   3:     0.06250000   -0.18750000   -0.43750000          4/512
   4:     0.06250000   -0.18750000   -0.31250000          4/512
   5:     0.06250000   -0.18750000   -0.18750000          2/512
   6:     0.06250000   -0.06250000   -0.43750000          4/512
   7:     0.06250000   -0.06250000   -0.31250000          4/512
   8:     0.06250000   -0.06250000   -0.18750000          4/512
   9:     0.06250000   -0.06250000   -0.06250000          2/512
          ...
 143:     0.43750000    0.43750000    0.43750000          2/512

Wave functions: Plane wave expansion
  Cutoff energy: 600.000 eV
  Number of coefficients (min, max): 2323, 2378
  Pulay-stress correction: 0.000000 eV/Ang^3 (de/decut=0.000000)
  Using FFTW library
  ScaLapack parameters: grid=1x1, blocksize=None

Eigensolver
   Davidson(niter=1, smin=None, normalize=True)

Densities:
  Coarse grid: 21*21*21 grid
  Fine grid: 42*42*42 grid
  Total Charge: 0.000000

Density mixing:
  Method: sum
  Backend: pulay
  Linear mixing parameter: 0.05
  Mixing with 5 old densities
  Damping of long wave oscillations: 50

Hamiltonian:
  XC and Coulomb potentials evaluated on a 42*42*42 grid
  Using the PBE Exchange-Correlation functional

Total number of cores used: 1

Number of atoms: 8
Number of atomic orbitals: 72
Number of bands in calculation: 72
Bands to converge: occupied states only
Number of valence electrons: 76

... initialized

Input parameters:
  convergence: {bands: 8}
  fixdensity: True
  kpts: {npoints: 60,
         path: GHPNG}
  nbands: -50
  symmetry: off

Initialize ...

Fe-setup:
  name: Iron
  id: 37abbd8d6c3c35915a9b583b742da910
  Z: 26
  valence: 8
  core: 18
  charge: 0.0
  file: /usr/share/gpaw-setups/Fe.PBE.gz
  cutoffs: 1.06(comp), 2.06(filt), 2.67(core), lmax=2
  valence states:
                energy  radius
    4s(2.00)    -5.291   1.164
    4p(0.00)    -1.326   1.058
    3d(6.00)    -7.505   1.058
    *s          21.920   1.164
    *p          25.885   1.058
    *d          19.706   1.058

[...]

Cu-setup:
  name: Copper
  id: f1c4d45d90492f1bbfdcb091e8418fdf
  Z: 29
  valence: 11
  core: 18
  charge: 0.0
  file: /usr/share/gpaw-setups/Cu.PBE.gz
  cutoffs: 1.06(comp), 2.06(filt), 2.43(core), lmax=2
  valence states:
                energy  radius
    4s(1.00)    -4.609   1.164
    4p(0.00)    -0.698   1.164
    3d(10.00)    -5.039   1.058
    *s          22.603   1.164
    *p          26.513   1.164
    *d          22.172   1.058

  Using partial waves for Cu as LCAO basis

Reference energy: -318563.625764

Spin-polarized calculation.
Magnetic moment: 8.800000

Occupation numbers:
  Fixed Fermi level
  Fermi-Dirac: width=0.1000 eV

Convergence criteria:
  Maximum total energy change: 0.0005 eV / electron
  Maximum integral of absolute density change: 0.0001 electrons
  Maximum integral of absolute eigenstate change: 4e-08 eV^2
  Maximum number of iterations: 333

Symmetries present (total): 1

  ( 1  0  0)
  ( 0  1  0)
  ( 0  0  1)

60 k-points
60 k-points in the irreducible part of the Brillouin zone
       k-points in crystal coordinates                weights
   0:     0.00000000    0.00000000    0.00000000       0.01666667
   1:     0.02631579   -0.02631579    0.02631579       0.01666667
   2:     0.05263158   -0.05263158    0.05263158       0.01666667
   3:     0.07894737   -0.07894737    0.07894737       0.01666667
   4:     0.10526316   -0.10526316    0.10526316       0.01666667
   5:     0.13157895   -0.13157895    0.13157895       0.01666667
   6:     0.15789474   -0.15789474    0.15789474       0.01666667
   7:     0.18421053   -0.18421053    0.18421053       0.01666667
   8:     0.21052632   -0.21052632    0.21052632       0.01666667
   9:     0.23684211   -0.23684211    0.23684211       0.01666667
          ...
  59:     0.00000000    0.00000000    0.00000000       0.01666667

Wave functions: Plane wave expansion
  Cutoff energy: 600.000 eV
  Number of coefficients (min, max): 2315, 2382
  Pulay-stress correction: 0.000000 eV/Ang^3 (de/decut=0.000000)
  Using FFTW library
  ScaLapack parameters: grid=1x1, blocksize=None

Eigensolver
   Davidson(niter=1, smin=None, normalize=True)

No density mixing

Total number of cores used: 1

Number of atoms: 8
Number of atomic orbitals: 72
Number of bands in calculation: 92
Bands to converge: 8 lowest bands
Number of valence electrons: 76

... initialized

Initializing position-dependent things.

Creating initial wave functions:
  72 bands from LCAO basis set
  20 bands from random numbers

           Fe
         Fe    Fe
             Fe
             Cu
           Cu    Cu
               Cu

Positions:
   0 Fe    -1.299997    1.300003    1.300003    ( 0.0000,  0.0000,  2.2000)
   1 Fe     0.000003    2.600003    0.000003    ( 0.0000,  0.0000,  2.2000)
   2 Fe     0.000003    0.000003    2.600003    ( 0.0000,  0.0000,  2.2000)
   3 Fe     1.300003    1.300003    1.300003    ( 0.0000,  0.0000,  2.2000)
   4 Cu     0.000003    0.000003    0.000003    ( 0.0000,  0.0000,  0.0000)
   5 Cu     1.300003    1.300003   -1.299997    ( 0.0000,  0.0000,  0.0000)
   6 Cu     1.300003   -1.299997    1.300003    ( 0.0000,  0.0000,  0.0000)
   7 Cu     2.600003    0.000003    0.000003    ( 0.0000,  0.0000,  0.0000)

Unit cell:
           periodic     x           y           z      points  spacing
  1. axis:    yes   -2.600000    2.600000    2.600000    21     0.1751
  2. axis:    yes    2.600000   -2.600000    2.600000    21     0.1751
  3. axis:    yes    2.600000    2.600000   -2.600000    21     0.1751

  Lengths:   4.503332   4.503332   4.503332
  Angles:  109.471221 109.471221 109.471221

Effective grid spacing dv^(1/3) = 0.1965

                     log10-error:    total        iterations:
           time      wfs    density  energy       fermi  poisson  magmom
iter:   1  17:32:11  +0.50          -40.651455    2               +7.6535
iter:   2  17:33:23  -0.92          -40.906278    3               +7.6537
iter:   3  17:34:36  -1.46          -40.954637    3               +7.6559
iter:   4  17:35:48  -2.05          -40.969644    3               +7.6566
iter:   5  17:37:00  -2.45          -40.975301    3               +7.6569
iter:   6  17:38:12  -2.83          -40.977595    3               +7.6570
iter:   7  17:39:30  -3.21          -40.978550    3               +7.6570
iter:   8  17:40:58  -3.55          -40.978965    3               +7.6570
iter:   9  17:42:29  -3.91          -40.979149    3               +7.6570
iter:  10  17:44:05  -4.24          -40.979232    3               +7.6570
iter:  11  17:45:31  -4.59          -40.979270    3               +7.6570
iter:  12  17:46:44  -4.92          -40.979287    3               +7.6570
iter:  13  17:48:15  -5.28          -40.979295    3               +7.6570
iter:  14  17:49:48  -5.62          -40.979298    3               +7.6570
iter:  15  17:51:21  -6.00          -40.979300    3               +7.6570
iter:  16  17:52:50  -6.34          -40.979301    3               +7.6570
iter:  17  17:54:13  -6.74          -40.979301    3               +7.6570
iter:  18  17:55:38  -7.10          -40.979301    3               +7.6570
iter:  19  17:57:11  -7.51          -40.979301    3               +7.6570

Converged after 19 iterations.

Dipole moment: (-0.000203, -0.000183, -0.000183) |e|*Ang

Total magnetic moment: (0.000000, 0.000000, 7.532433)
Local magnetic moments:
   0 Fe ( 0.000000,  0.000000,  1.830056)
   1 Fe ( 0.000000,  0.000000,  1.830052)
   2 Fe ( 0.000000,  0.000000,  1.830052)
   3 Fe ( 0.000000,  0.000000,  1.830057)
   4 Cu ( 0.000000,  0.000000,  0.084607)
   5 Cu ( 0.000000,  0.000000,  0.084607)
   6 Cu ( 0.000000,  0.000000,  0.084607)
   7 Cu ( 0.000000,  0.000000,  0.084608)

Energy contributions relative to reference atoms: (reference = -318563.625764)

Kinetic:       +132.495908
Potential:     -104.840893
External:        +0.000000
XC:             -69.266731
Entropy (-ST):   -0.255507
Local:           +0.760168
Free energy:    -41.107055
Extrapolated:   -40.979301

Spin contamination: 0.270651 electrons
Fixed Fermi level: 13.44380

Warning: Showing only first 2 kpts
                      Up                     Down
 Kpt  Band  Eigenvalues  Occupancy  Eigenvalues  Occupancy
  0    36     12.87766    0.01660     14.47385    0.00000
  0    37     12.92349    0.01656     14.61892    0.00000
  0    38     12.92349    0.01656     14.76885    0.00000
  0    39     12.95990    0.01652     14.76885    0.00000

  1    36     12.94972    0.01653     14.47877    0.00000
  1    37     13.00697    0.01643     14.60989    0.00000
  1    38     13.00784    0.01643     14.79472    0.00000
  1    39     13.05476    0.01629     14.79505    0.00000