User:   rasmusat@c43-2.local
Date:   Fri Nov 30 09:20:04 2018
Arch:   x86_64
Pid:    46157
Python: 2.7.12
gpaw:   /home/davidkl/.local/lib/python2.7/site-packages/gpaw
_gpaw:  /home/davidkl/.local/bin/gpaw-python
ase:    /home/davidkl/.local/lib/python2.7/site-packages/ase (version 3.16.2)
units:  Angstrom and eV
cores:  32

Input parameters:
  kpts: [10 10 10]
  mode: {ecut: 500.0,
         name: pw}
  nbands: -25
  occupations: {name: fermi-dirac,
                width: 0.1}
  spinpol: True
  xc: PBE

System changes: positions, numbers, cell, pbc, initial_charges, initial_magmoms

Initialize ...

Fe-setup:
  name: Iron
  id: 37abbd8d6c3c35915a9b583b742da910
  Z: 26
  valence: 8
  core: 18
  charge: 0.0
  file: /home/davidkl/gpaw-setups-0.9.20000/Fe.PBE.gz
  cutoffs: 1.06(comp), 2.06(filt), 2.67(core), lmax=2
  valence states:
                energy  radius
    4s(2.00)    -5.291   1.164
    4p(0.00)    -1.326   1.058
    3d(6.00)    -7.505   1.058
    *s          21.920   1.164
    *p          25.885   1.058
    *d          19.706   1.058

  Using partial waves for Fe as LCAO basis

Cu-setup:
  name: Copper
  id: f1c4d45d90492f1bbfdcb091e8418fdf
  Z: 29
  valence: 11
  core: 18
  charge: 0.0
  file: /home/davidkl/gpaw-setups-0.9.20000/Cu.PBE.gz
  cutoffs: 1.06(comp), 2.06(filt), 2.43(core), lmax=2
  valence states:
                energy  radius
    4s(1.00)    -4.609   1.164
    4p(0.00)    -0.698   1.164
    3d(10.00)    -5.039   1.058
    *s          22.603   1.164
    *p          26.513   1.164
    *d          22.172   1.058

[...]

Reference energy: -328965.623005

Spin-polarized calculation.
Magnetic moment:  6.600000

Occupation numbers:
  Fermi-Dirac: width=0.1000 eV

Convergence criteria:
  Maximum total energy change: 0.0005 eV / electron
  Maximum integral of absolute density change: 0.0001 electrons
  Maximum integral of absolute eigenstate change: 4e-08 eV^2
  Maximum number of iterations: 333

Symmetries present (total): 2

  ( 1  0  0)  ( 1  0  0)
  ( 0  1  0)  ( 0  0  1)
  ( 0  0  1)  ( 0  1  0)

1000 k-points: 10 x 10 x 10 Monkhorst-Pack grid
275 k-points in the irreducible part of the Brillouin zone
       k-points in crystal coordinates                weights
   0:     0.05000000   -0.45000000   -0.45000000          2/1000
   1:     0.05000000   -0.35000000   -0.45000000          4/1000
   2:     0.05000000   -0.35000000   -0.35000000          2/1000
   3:     0.05000000   -0.25000000   -0.45000000          4/1000
   4:     0.05000000   -0.25000000   -0.35000000          4/1000
   5:     0.05000000   -0.25000000   -0.25000000          2/1000
   6:     0.05000000   -0.15000000   -0.45000000          4/1000
   7:     0.05000000   -0.15000000   -0.35000000          4/1000
   8:     0.05000000   -0.15000000   -0.25000000          4/1000
   9:     0.05000000   -0.15000000   -0.15000000          2/1000
          ...
 274:     0.45000000    0.45000000    0.45000000          2/1000

Wave functions: Plane wave expansion
  Cutoff energy: 500.000 eV
  Number of coefficients (min, max): 1769, 1802
  Pulay-stress correction: 0.000000 eV/Ang^3 (de/decut=0.000000)
  Using FFTW library
  Eigensolver: None  MatrixOperator buffer_size: default value or
                              see value of nblock in input file
Diagonalizer layout: Serial LAPACKOrthonormalizer layout: Serial LAPACK

Davidson(niter=1, smin=None, normalize=True)

Densities:
  Coarse grid: 20*20*20 grid
  Fine grid: 40*40*40 grid
  Total Charge: 0.000000

Density mixing:
  Method: sum
  Backend: pulay
  Linear mixing parameter: 0.05
  Mixing with 5 old densities
  Damping of long wave oscillations: 50

Hamiltonian:
  XC and Coulomb potentials evaluated on a 40*40*40 grid
  Using the PBE Exchange-Correlation functional

Total number of cores used: 32
Parallelization over k-points and spin: 32

Number of atoms: 8
Number of atomic orbitals: 72
Number of bands in calculation: 68
Bands to converge: occupied states only
Number of valence electrons: 79

... initialized

Initializing position-dependent things.

Density initialized from atomic densities
Creating initial wave functions:
  68 bands from LCAO basis set

           Cu
         Cu    Cu
             Cu
             Fe
           Fe    Cu
               Fe

Positions:
   0 Fe     0.000003    0.000003    0.000003
   1 Fe     1.300003    1.300003   -1.299997
   2 Fe     1.300003   -1.299997    1.300003
   3 Cu     2.600003    0.000003    0.000003
   4 Cu    -1.299997    1.300003    1.300003
   5 Cu     0.000003    2.600003    0.000003
   6 Cu     0.000003    0.000003    2.600003
   7 Cu     1.300003    1.300003    1.300003

Unit cell:
           periodic     x           y           z      points  spacing
  1. axis:    yes   -2.600000    2.600000    2.600000    20     0.1838
  2. axis:    yes    2.600000   -2.600000    2.600000    20     0.1838
  3. axis:    yes    2.600000    2.600000   -2.600000    20     0.1838

  Lengths:   4.503332   4.503332   4.503332
  Angles:  109.471221 109.471221 109.471221

Effective grid spacing dv^(1/3) = 0.2064

                     log10-error:    total        iterations:
           time      wfs    density  energy       fermi  poisson  magmom
iter:   1  09:20:19  +2.06   +inf   -62.597215    3               +1.8313
iter:   2  09:20:25  +0.25   +inf   -63.217414    3               +1.8361
iter:   3  09:20:30  -0.75   +inf   -63.309464    2               +1.8372
iter:   4  09:20:36  +0.41  -1.09   -40.621114    33              +5.0327
iter:   5  09:20:42  -0.62  -1.34   -39.297693    4               +5.3054
iter:   6  09:20:48  +0.22  -1.43   -38.003884    34              +5.2265
iter:   7  09:20:54  -1.19  -1.89   -37.779617    4               +5.4053
iter:   8  09:21:00  -0.73  -2.00   -37.734423    3               +5.5059
iter:   9  09:21:06  -0.65  -2.06   -38.206241    3               +5.4697
iter:  10  09:21:12  -0.65  -2.14   -37.543363    3               +5.3874
iter:  11  09:21:18  -1.85  -2.45   -37.576587    3               +5.4359
iter:  12  09:21:24  -2.63  -2.48   -37.567504    3               +5.4279
iter:  13  09:21:30  -1.84  -2.55   -37.556100    3               +5.4026
iter:  14  09:21:36  -2.69  -2.92   -37.552456    3               +5.4019
iter:  15  09:21:43  -2.95  -3.15   -37.550672    2               +5.4045
iter:  16  09:21:49  -3.37  -3.20   -37.550201    2               +5.4037
iter:  17  09:21:55  -3.09  -3.26   -37.551558    3               +5.3901
iter:  18  09:22:01  -4.04  -3.53   -37.551004    2               +5.3884
iter:  19  09:22:07  -3.34  -3.68   -37.550113    3               +5.3884
iter:  20  09:22:13  -5.05  -3.91   -37.550120    1               +5.3877
iter:  21  09:22:19  -5.26  -3.92   -37.550111    2               +5.3863
iter:  22  09:22:25  -5.52  -4.05   -37.550137    2               +5.3839
iter:  23  09:22:31  -4.68  -4.21   -37.550195    2               +5.3834
iter:  24  09:22:37  -6.40  -4.27   -37.550204    2               +5.3829
iter:  25  09:22:43  -4.93  -4.30   -37.550167    2               +5.3812
iter:  26  09:22:49  -5.06  -4.54   -37.550221    2               +5.3794
iter:  27  09:22:55  -5.80  -4.61   -37.550208    2               +5.3784
iter:  28  09:23:01  -6.12  -4.94   -37.550199    2               +5.3779
iter:  29  09:23:07  -7.21  -5.08   -37.550199    2               +5.3776
iter:  30  09:23:13  -7.56  -5.11   -37.550201    1               +5.3773

Converged after 30 iterations.

Dipole moment: (-0.000189, -0.000196, -0.000196) |e|*Ang

Total magnetic moment: 5.377291
Local magnetic moments:
   0 Fe 1.794786
   1 Fe 1.716996
   2 Fe 1.716996
   3 Cu 0.044881
   4 Cu 0.036342
   5 Cu 0.071317
   6 Cu 0.071317
   7 Cu 0.036448

Energy contributions relative to reference atoms: (reference = -328965.623005)

Kinetic:       +104.577650
Potential:      -83.811404
External:        +0.000000
XC:             -59.162967
Entropy (-ST):   -0.189147
Local:           +0.941094
Free energy:    -37.644774
Extrapolated:   -37.550201

Spin contamination: 0.272085 electrons
Fermi level: 13.18089

Warning: Showing only first 2 kpts
                      Up                     Down
 Kpt  Band  Eigenvalues  Occupancy  Eigenvalues  Occupancy
  0    37     11.89719    0.00200     13.26758    0.00059
  0    38     12.01548    0.00200     13.43290    0.00015
  0    39     12.08755    0.00200     13.47640    0.00010
  0    40     12.72485    0.00198     14.04798    0.00000

  1    37     11.97467    0.00400     13.17159    0.00209
  1    38     12.01199    0.00400     13.52352    0.00013
  1    39     12.38576    0.00400     13.67705    0.00003
  1    40     12.64183    0.00398     13.97466    0.00000

Forces in eV/Ang:
  0 Fe   -0.00000   -0.00000   -0.00000
  1 Fe   -0.00000   -0.00000   -0.00000
  2 Fe   -0.00000   -0.00000   -0.00000
  3 Cu   -0.00000   -0.00000   -0.00000
  4 Cu   -0.00000   -0.00000   -0.00000
  5 Cu   -0.00000   -0.00000   -0.00000
  6 Cu   -0.00000   -0.00000   -0.00000
  7 Cu   -0.00000   -0.00000   -0.00000

Stress tensor:
    -0.597396    -0.000117    -0.000117
    -0.000117    -0.622221    -0.042752
    -0.000117    -0.042752    -0.622221
Writing to fecu_id10_relaxed.gpw (mode='')

System changes: positions, cell

[...]

Converged after 44 iterations.

Dipole moment: (-0.000220, -0.000251, -0.000251) |e|*Ang

Total magnetic moment: 7.835519
Local magnetic moments:
   0 Fe 2.526120
   1 Fe 2.637695
   2 Fe 2.637695
   3 Cu 0.061318
   4 Cu 0.033259
   5 Cu 0.064001
   6 Cu 0.064001
   7 Cu 0.033372

Energy contributions relative to reference atoms: (reference = -328965.623005)

Kinetic:        -37.973134
Potential:      +29.039285
External:        +0.000000
XC:             -35.299560
Entropy (-ST):   -0.210065
Local:           +0.639043
Free energy:    -43.804432
Extrapolated:   -43.699399

Spin contamination: 0.460876 electrons
Fermi level: 8.66650

Warning: Showing only first 2 kpts
                      Up                     Down
 Kpt  Band  Eigenvalues  Occupancy  Eigenvalues  Occupancy
  0    37      7.07045    0.00200      9.02083    0.00006
  0    38      7.16657    0.00200      9.19049    0.00001
  0    39      7.27714    0.00200      9.26997    0.00000
  0    40      7.42428    0.00200      9.52414    0.00000

  1    37      7.08791    0.00400      9.01539    0.00012
  1    38      7.19201    0.00400      9.27611    0.00001
  1    39      7.28180    0.00400      9.35151    0.00000
  1    40      7.39089    0.00400      9.52341    0.00000

Forces in eV/Ang:
  0 Fe    0.00000    0.00000    0.00000
  1 Fe    0.00000   -0.00000    0.00000
  2 Fe    0.00000    0.00000   -0.00000
  3 Cu   -0.00000    0.00000    0.00000
  4 Cu    0.00000    0.00000    0.00000
  5 Cu   -0.00000   -0.00000    0.00000
  6 Cu   -0.00000    0.00000   -0.00000
  7 Cu   -0.00000   -0.00000   -0.00000

Stress tensor:
    -0.002230     0.000024     0.000024
     0.000024    -0.007927    -0.000485
     0.000024    -0.000485    -0.007927
Writing to fecu_id10_relaxed.gpw (mode='')

System changes: positions, cell

Initialize ...

Fe-setup:
  name: Iron
  id: 37abbd8d6c3c35915a9b583b742da910
  Z: 26
  valence: 8
  core: 18
  charge: 0.0
  file: /home/davidkl/gpaw-setups-0.9.20000/Fe.PBE.gz
  cutoffs: 1.06(comp), 2.06(filt), 2.67(core), lmax=2
  valence states:
                energy  radius
    4s(2.00)    -5.291   1.164
    4p(0.00)    -1.326   1.058
    3d(6.00)    -7.505   1.058
    *s          21.920   1.164
    *p          25.885   1.058
    *d          19.706   1.058

[...]

Cu-setup:
  name: Copper
  id: f1c4d45d90492f1bbfdcb091e8418fdf
  Z: 29
  valence: 11
  core: 18
  charge: 0.0
  file: /home/davidkl/gpaw-setups-0.9.20000/Cu.PBE.gz
  cutoffs: 1.06(comp), 2.06(filt), 2.43(core), lmax=2
  valence states:
                energy  radius
    4s(1.00)    -4.609   1.164
    4p(0.00)    -0.698   1.164
    3d(10.00)    -5.039   1.058
    *s          22.603   1.164
    *p          26.513   1.164
    *d          22.172   1.058

  Using partial waves for Cu as LCAO basis

Reference energy: -328965.623005

Spin-polarized calculation.
Magnetic moment:  6.600000

Occupation numbers:
  Fermi-Dirac: width=0.1000 eV

Convergence criteria:
  Maximum total energy change: 0.0005 eV / electron
  Maximum integral of absolute density change: 0.0001 electrons
  Maximum integral of absolute eigenstate change: 4e-08 eV^2
  Maximum number of iterations: 333

Symmetries present (total): 2

  ( 1  0  0)  ( 1  0  0)
  ( 0  1  0)  ( 0  0  1)
  ( 0  0  1)  ( 0  1  0)

1000 k-points: 10 x 10 x 10 Monkhorst-Pack grid
275 k-points in the irreducible part of the Brillouin zone
       k-points in crystal coordinates                weights
   0:     0.05000000   -0.45000000   -0.45000000          2/1000
   1:     0.05000000   -0.35000000   -0.45000000          4/1000
   2:     0.05000000   -0.35000000   -0.35000000          2/1000
   3:     0.05000000   -0.25000000   -0.45000000          4/1000
   4:     0.05000000   -0.25000000   -0.35000000          4/1000
   5:     0.05000000   -0.25000000   -0.25000000          2/1000
   6:     0.05000000   -0.15000000   -0.45000000          4/1000
   7:     0.05000000   -0.15000000   -0.35000000          4/1000
   8:     0.05000000   -0.15000000   -0.25000000          4/1000
   9:     0.05000000   -0.15000000   -0.15000000          2/1000
          ...
 274:     0.45000000    0.45000000    0.45000000          2/1000

Wave functions: Plane wave expansion
  Cutoff energy: 500.000 eV
  Number of coefficients (min, max): 2401, 2440
  Pulay-stress correction: 0.000000 eV/Ang^3 (de/decut=0.000000)
  Using FFTW library
  Eigensolver: None  MatrixOperator buffer_size: default value or
                              see value of nblock in input file
Diagonalizer layout: Serial LAPACKOrthonormalizer layout: Serial LAPACK

Davidson(niter=1, smin=None, normalize=True)

Densities:
  Coarse grid: 21*21*21 grid
  Fine grid: 42*42*42 grid
  Total Charge: 0.000000

Density mixing:
  Method: sum
  Backend: pulay
  Linear mixing parameter: 0.05
  Mixing with 5 old densities
  Damping of long wave oscillations: 50

Hamiltonian:
  XC and Coulomb potentials evaluated on a 42*42*42 grid
  Using the PBE Exchange-Correlation functional

Total number of cores used: 32
Parallelization over k-points and spin: 32

Number of atoms: 8
Number of atomic orbitals: 72
Number of bands in calculation: 68
Bands to converge: occupied states only
Number of valence electrons: 79

... initialized

Initializing position-dependent things.

Density initialized from atomic densities
Creating initial wave functions:
  68 bands from LCAO basis set

           Cu
         Cu     Cu
             Cu
              Fe
           Fe     Cu
                Fe

Positions:
   0 Fe     0.000003    0.000003    0.000003
   1 Fe     1.405124    1.440499   -1.440172
   2 Fe     1.405124   -1.440172    1.440499
   3 Cu     2.810245    0.000325    0.000325
   4 Cu    -1.404795    1.471910    1.471910
   5 Cu     0.000326    2.912407    0.031735
   6 Cu     0.000326    0.031735    2.912407
   7 Cu     1.405447    1.472232    1.472232

Unit cell:
           periodic     x           y           z      points  spacing
  1. axis:    yes   -2.809596    2.943814    2.943814    21     0.1983
  2. axis:    yes    2.810242   -2.880349    2.880993    21     0.1926
  3. axis:    yes    2.810242    2.880993   -2.880349    21     0.1926

  Lengths:   5.022541   4.949141   4.949141
  Angles:  110.802713 108.515619 108.515619

Effective grid spacing dv^(1/3) = 0.2175

                     log10-error:    total        iterations:
           time      wfs    density  energy       fermi  poisson  magmom
iter:   1  12:16:35  +2.04   +inf   -67.615452    37              +1.4504
iter:   2  12:16:43  +0.19   +inf   -68.113404    3               +1.4576
iter:   3  12:16:50  -0.87   +inf   -68.187472    2               +1.4589
iter:   4  12:16:58  +0.59  -1.03   -45.107332    32              +6.0726
iter:   5  12:17:06  -0.73  -1.34   -44.743700    3               +6.8653
iter:   6  12:17:14  -0.02  -1.42   -43.689655    34              +6.9787
iter:   7  12:17:22  -1.51  -1.83   -43.603066    2               +7.0845
iter:   8  12:17:30  -1.73  -1.91   -43.651889    3               +7.2384
iter:   9  12:17:38  -1.99  -2.00   -43.650882    3               +7.3315
iter:  10  12:17:46  -0.77  -2.11   -43.694955    2               +7.4516
iter:  11  12:17:54  -2.30  -2.39   -43.681374    2               +7.4775
iter:  12  12:18:03  -1.87  -2.45   -43.700308    3               +7.5762
iter:  13  12:18:11  -2.41  -2.64   -43.709623    3               +7.6530
iter:  14  12:18:19  -2.23  -2.88   -43.693055    2               +7.6878
iter:  15  12:18:27  -2.76  -3.06   -43.692820    2               +7.6928
iter:  16  12:18:35  -3.72  -3.15   -43.693830    2               +7.7015
iter:  17  12:18:43  -3.75  -3.18   -43.697857    2               +7.7410
iter:  18  12:18:51  -3.58  -3.35   -43.698792    2               +7.7625
iter:  19  12:18:59  -4.69  -3.50   -43.699363    2               +7.7717
iter:  20  12:19:07  -4.59  -3.56   -43.699628    2               +7.7776
iter:  21  12:19:15  -4.07  -3.66   -43.699863    2               +7.7865
iter:  22  12:19:23  -5.20  -3.88   -43.699956    2               +7.7889
iter:  23  12:19:31  -5.23  -4.08   -43.699931    2               +7.7871
iter:  24  12:19:39  -5.23  -4.15   -43.700099    2               +7.7907
iter:  25  12:19:47  -6.03  -4.17   -43.700078    2               +7.7896
iter:  26  12:19:55  -5.41  -4.17   -43.700074    2               +7.7904
iter:  27  12:20:03  -6.01  -4.17   -43.700099    2               +7.7906