User:   rasmusat@c43-8.local
Date:   Fri Nov 30 09:20:03 2018
Arch:   x86_64
Pid:    7724
Python: 2.7.12
gpaw:   /home/davidkl/.local/lib/python2.7/site-packages/gpaw
_gpaw:  /home/davidkl/.local/bin/gpaw-python
ase:    /home/davidkl/.local/lib/python2.7/site-packages/ase (version 3.16.2)
units:  Angstrom and eV
cores:  32

Input parameters:
  kpts: [10 10 10]
  mode: {ecut: 500.0,
         name: pw}
  nbands: -25
  occupations: {name: fermi-dirac,
                width: 0.1}
  spinpol: True
  xc: PBE

System changes: positions, numbers, cell, pbc, initial_charges, initial_magmoms

Initialize ...

Fe-setup:
  name: Iron
  id: 37abbd8d6c3c35915a9b583b742da910
  Z: 26
  valence: 8
  core: 18
  charge: 0.0
  file: /home/davidkl/gpaw-setups-0.9.20000/Fe.PBE.gz
  cutoffs: 1.06(comp), 2.06(filt), 2.67(core), lmax=2
  valence states:
                energy  radius
    4s(2.00)    -5.291   1.164
    4p(0.00)    -1.326   1.058
    3d(6.00)    -7.505   1.058
    *s          21.920   1.164
    *p          25.885   1.058
    *d          19.706   1.058

  Using partial waves for Fe as LCAO basis

Cu-setup:
  name: Copper
  id: f1c4d45d90492f1bbfdcb091e8418fdf
  Z: 29
  valence: 11
  core: 18
  charge: 0.0
  file: /home/davidkl/gpaw-setups-0.9.20000/Cu.PBE.gz
  cutoffs: 1.06(comp), 2.06(filt), 2.43(core), lmax=2
  valence states:
                energy  radius
    4s(1.00)    -4.609   1.164
    4p(0.00)    -0.698   1.164
    3d(10.00)    -5.039   1.058
    *s          22.603   1.164
    *p          26.513   1.164
    *d          22.172   1.058

[...]

Reference energy: -339367.620247

Spin-polarized calculation.
Magnetic moment:  4.400000

Occupation numbers:
  Fermi-Dirac: width=0.1000 eV

Convergence criteria:
  Maximum total energy change: 0.0005 eV / electron
  Maximum integral of absolute density change: 0.0001 electrons
  Maximum integral of absolute eigenstate change: 4e-08 eV^2
  Maximum number of iterations: 333

Symmetries present (total): 2

  ( 1  0  0)  ( 0  1  0)
  ( 0  1  0)  ( 1  0  0)
  ( 0  0  1)  ( 0  0  1)

1000 k-points: 10 x 10 x 10 Monkhorst-Pack grid
275 k-points in the irreducible part of the Brillouin zone
       k-points in crystal coordinates                weights
   0:     0.05000000   -0.05000000    0.05000000          4/1000
   1:     0.05000000   -0.05000000    0.15000000          4/1000
   2:     0.05000000   -0.05000000    0.25000000          4/1000
   3:     0.05000000   -0.05000000    0.35000000          4/1000
   4:     0.05000000   -0.05000000    0.45000000          4/1000
   5:     0.05000000    0.05000000   -0.45000000          2/1000
   6:     0.05000000    0.05000000   -0.35000000          2/1000
   7:     0.05000000    0.05000000   -0.25000000          2/1000
   8:     0.05000000    0.05000000   -0.15000000          2/1000
   9:     0.05000000    0.05000000   -0.05000000          2/1000
          ...
 274:     0.45000000    0.45000000    0.45000000          2/1000

Wave functions: Plane wave expansion
  Cutoff energy: 500.000 eV
  Number of coefficients (min, max): 1769, 1802
  Pulay-stress correction: 0.000000 eV/Ang^3 (de/decut=0.000000)
  Using FFTW library
  Eigensolver: None  MatrixOperator buffer_size: default value or
                              see value of nblock in input file
Diagonalizer layout: Serial LAPACKOrthonormalizer layout: Serial LAPACK

Davidson(niter=1, smin=None, normalize=True)

Densities:
  Coarse grid: 20*20*20 grid
  Fine grid: 40*40*40 grid
  Total Charge: 0.000000

Density mixing:
  Method: sum
  Backend: pulay
  Linear mixing parameter: 0.05
  Mixing with 5 old densities
  Damping of long wave oscillations: 50

Hamiltonian:
  XC and Coulomb potentials evaluated on a 40*40*40 grid
  Using the PBE Exchange-Correlation functional

Total number of cores used: 32
Parallelization over k-points and spin: 32

Number of atoms: 8
Number of atomic orbitals: 72
Number of bands in calculation: 68
Bands to converge: occupied states only
Number of valence electrons: 82

... initialized

Initializing position-dependent things.

Density initialized from atomic densities
Creating initial wave functions:
  68 bands from LCAO basis set

           Cu
         Cu    Cu
             Cu
             Cu
           Fe    Cu
               Fe

Positions:
   0 Fe     0.000003    0.000003    0.000003
   1 Fe     1.300003    1.300003   -1.299997
   2 Cu     1.300003   -1.299997    1.300003
   3 Cu     2.600003    0.000003    0.000003
   4 Cu    -1.299997    1.300003    1.300003
   5 Cu     0.000003    2.600003    0.000003
   6 Cu     0.000003    0.000003    2.600003
   7 Cu     1.300003    1.300003    1.300003

Unit cell:
           periodic     x           y           z      points  spacing
  1. axis:    yes   -2.600000    2.600000    2.600000    20     0.1838
  2. axis:    yes    2.600000   -2.600000    2.600000    20     0.1838
  3. axis:    yes    2.600000    2.600000   -2.600000    20     0.1838

  Lengths:   4.503332   4.503332   4.503332
  Angles:  109.471221 109.471221 109.471221

Effective grid spacing dv^(1/3) = 0.2064

                     log10-error:    total        iterations:
           time      wfs    density  energy       fermi  poisson  magmom
iter:   1  09:20:19  +2.00   +inf   -54.284071    3               +0.8402
iter:   2  09:20:24  +0.20   +inf   -54.869035    3               +0.8429
iter:   3  09:20:29  -0.78   +inf   -54.955291    2               +0.8435
iter:   4  09:20:36  +0.23  -1.14   -36.795864    34              +3.1852
iter:   5  09:20:42  -0.26  -1.32   -34.196177    3               +3.4183
iter:   6  09:20:48  +0.45  -1.44   -33.136777    35              +3.4312
iter:   7  09:20:54  -0.53  -1.93   -32.531380    3               +3.5583
iter:   8  09:21:00  -0.23  -2.02   -32.895350    3               +3.4738
iter:   9  09:21:06  -1.15  -1.91   -32.364467    2               +3.5036
iter:  10  09:21:12  -2.10  -2.49   -32.314289    3               +3.5293
iter:  11  09:21:18  -2.90  -2.49   -32.315564    2               +3.5401
iter:  12  09:21:24  -3.25  -2.48   -32.310905    3               +3.5427
iter:  13  09:21:30  -1.92  -2.46   -32.309969    3               +3.5497
iter:  14  09:21:36  -2.98  -2.71   -32.310960    2               +3.5515
iter:  15  09:21:42  -2.69  -2.80   -32.312004    3               +3.5542
iter:  16  09:21:48  -2.98  -3.13   -32.310220    3               +3.5562
iter:  17  09:21:54  -4.11  -3.57   -32.310015    2               +3.5593
iter:  18  09:22:00  -4.34  -3.62   -32.309978    2               +3.5585
iter:  19  09:22:06  -5.59  -3.68   -32.309982    2               +3.5580
iter:  20  09:22:12  -5.38  -3.67   -32.309902    2               +3.5576
iter:  21  09:22:18  -5.04  -3.72   -32.309865    2               +3.5561
iter:  22  09:22:24  -5.01  -3.85   -32.309961    2               +3.5536
iter:  23  09:22:30  -5.61  -4.10   -32.309980    2               +3.5522
iter:  24  09:22:36  -5.59  -4.12   -32.310003    2               +3.5501
iter:  25  09:22:42  -5.95  -4.32   -32.310021    2               +3.5489
iter:  26  09:22:48  -6.16  -4.30   -32.310002    2               +3.5485
iter:  27  09:22:54  -6.24  -4.35   -32.309987    2               +3.5481
iter:  28  09:23:00  -5.47  -4.48   -32.310001    2               +3.5457
iter:  29  09:23:06  -6.40  -4.78   -32.310009    2               +3.5454
iter:  30  09:23:12  -7.61  -4.84   -32.310011    2               +3.5452

Converged after 30 iterations.

Dipole moment: (-0.000188, -0.000188, -0.000197) |e|*Ang

Total magnetic moment: 3.545244
Local magnetic moments:
   0 Fe 1.698760
   1 Fe 1.698760
   2 Cu 0.037076
   3 Cu 0.037076
   4 Cu 0.037076
   5 Cu 0.037076
   6 Cu 0.037190
   7 Cu 0.037190

Energy contributions relative to reference atoms: (reference = -339367.620247)

Kinetic:        +82.037394
Potential:      -65.427367
External:        +0.000000
XC:             -49.724849
Entropy (-ST):   -0.186730
Local:           +0.898176
Free energy:    -32.403377
Extrapolated:   -32.310011

Spin contamination: 0.224395 electrons
Fermi level: 13.00224

Warning: Showing only first 2 kpts
                      Up                     Down
 Kpt  Band  Eigenvalues  Occupancy  Eigenvalues  Occupancy
  0    39     12.28633    0.00400     12.99032    0.00212
  0    40     12.36881    0.00399     13.33361    0.00014
  0    41     12.55345    0.00396     13.53558    0.00002
  0    42     12.59312    0.00393     13.87413    0.00000

  1    39     12.20987    0.00400     13.32707    0.00015
  1    40     12.40842    0.00399     13.44444    0.00005
  1    41     12.78729    0.00358     13.78803    0.00000
  1    42     12.95740    0.00244     13.87105    0.00000

Forces in eV/Ang:
  0 Fe   -0.00000   -0.00000   -0.00000
  1 Fe   -0.00000   -0.00000   -0.00000
  2 Cu   -0.00000   -0.00000   -0.00000
  3 Cu   -0.00000   -0.00000   -0.00000
  4 Cu   -0.00000   -0.00000   -0.00000
  5 Cu   -0.00000   -0.00000   -0.00000
  6 Cu   -0.00000   -0.00000   -0.00000
  7 Cu   -0.00000   -0.00000   -0.00000

Stress tensor:
    -0.610921     0.022363    -0.022655
     0.022363    -0.610921    -0.022655
    -0.022655    -0.022655    -0.610893
Writing to fecu_id11_relaxed.gpw (mode='')

System changes: positions, cell

[...]

System changes: positions, cell

Initialize ...

Fe-setup:
  name: Iron
  id: 37abbd8d6c3c35915a9b583b742da910
  Z: 26
  valence: 8
  core: 18
  charge: 0.0
  file: /home/davidkl/gpaw-setups-0.9.20000/Fe.PBE.gz
  cutoffs: 1.06(comp), 2.06(filt), 2.67(core), lmax=2
  valence states:
                energy  radius
    4s(2.00)    -5.291   1.164
    4p(0.00)    -1.326   1.058
    3d(6.00)    -7.505   1.058
    *s          21.920   1.164
    *p          25.885   1.058
    *d          19.706   1.058

[...]

Cu-setup:
  name: Copper
  id: f1c4d45d90492f1bbfdcb091e8418fdf
  Z: 29
  valence: 11
  core: 18
  charge: 0.0
  file: /home/davidkl/gpaw-setups-0.9.20000/Cu.PBE.gz
  cutoffs: 1.06(comp), 2.06(filt), 2.43(core), lmax=2
  valence states:
                energy  radius
    4s(1.00)    -4.609   1.164
    4p(0.00)    -0.698   1.164
    3d(10.00)    -5.039   1.058
    *s          22.603   1.164
    *p          26.513   1.164
    *d          22.172   1.058

  Using partial waves for Cu as LCAO basis

Reference energy: -339367.620247

Spin-polarized calculation.
Magnetic moment:  4.400000

Occupation numbers:
  Fermi-Dirac: width=0.1000 eV

Convergence criteria:
  Maximum total energy change: 0.0005 eV / electron
  Maximum integral of absolute density change: 0.0001 electrons
  Maximum integral of absolute eigenstate change: 4e-08 eV^2
  Maximum number of iterations: 333

Symmetries present (total): 2

  ( 1  0  0)  ( 0  1  0)
  ( 0  1  0)  ( 1  0  0)
  ( 0  0  1)  ( 0  0  1)

1000 k-points: 10 x 10 x 10 Monkhorst-Pack grid
275 k-points in the irreducible part of the Brillouin zone
       k-points in crystal coordinates                weights
   0:     0.05000000   -0.05000000    0.05000000          4/1000
   1:     0.05000000   -0.05000000    0.15000000          4/1000
   2:     0.05000000   -0.05000000    0.25000000          4/1000
   3:     0.05000000   -0.05000000    0.35000000          4/1000
   4:     0.05000000   -0.05000000    0.45000000          4/1000
   5:     0.05000000    0.05000000   -0.45000000          2/1000
   6:     0.05000000    0.05000000   -0.35000000          2/1000
   7:     0.05000000    0.05000000   -0.25000000          2/1000
   8:     0.05000000    0.05000000   -0.15000000          2/1000
   9:     0.05000000    0.05000000   -0.05000000          2/1000
          ...
 274:     0.45000000    0.45000000    0.45000000          2/1000

Wave functions: Plane wave expansion
  Cutoff energy: 500.000 eV
  Number of coefficients (min, max): 2427, 2469
  Pulay-stress correction: 0.000000 eV/Ang^3 (de/decut=0.000000)
  Using FFTW library
  Eigensolver: None  MatrixOperator buffer_size: default value or
                              see value of nblock in input file
Diagonalizer layout: Serial LAPACKOrthonormalizer layout: Serial LAPACK

Davidson(niter=1, smin=None, normalize=True)

Densities:
  Coarse grid: 21*21*21 grid
  Fine grid: 42*42*42 grid
  Total Charge: 0.000000

Density mixing:
  Method: sum
  Backend: pulay
  Linear mixing parameter: 0.05
  Mixing with 5 old densities
  Damping of long wave oscillations: 50

Hamiltonian:
  XC and Coulomb potentials evaluated on a 42*42*42 grid
  Using the PBE Exchange-Correlation functional

Total number of cores used: 32
Parallelization over k-points and spin: 32

Number of atoms: 8
Number of atomic orbitals: 72
Number of bands in calculation: 68
Bands to converge: occupied states only
Number of valence electrons: 82

... initialized

Initializing position-dependent things.

Density initialized from atomic densities
Creating initial wave functions:
  68 bands from LCAO basis set

           Cu
         Cu     Cu
             Cu
              Cu
           Fe     Cu
                Fe

Positions:
   0 Fe     0.000003    0.000003    0.000003
   1 Fe     1.425971    1.425971   -1.425703
   2 Cu     1.463555   -1.444546    1.444714
   3 Cu     2.889524   -0.018577    0.019008
   4 Cu    -1.444546    1.463555    1.444714
   5 Cu    -0.018577    2.889524    0.019008
   6 Cu     0.019007    0.019007    2.889425
   7 Cu     1.444975    1.444975    1.463719

Unit cell:
           periodic     x           y           z      points  spacing
  1. axis:    yes   -2.889097    2.927105    2.889422    21     0.1959
  2. axis:    yes    2.927105   -2.889097    2.889422    21     0.1959
  3. axis:    yes    2.851936    2.851936   -2.851412    21     0.1933

  Lengths:   5.026289   5.026289   4.939396
  Angles:  109.116487 109.116487 109.816606

Effective grid spacing dv^(1/3) = 0.2184

                     log10-error:    total        iterations:
           time      wfs    density  energy       fermi  poisson  magmom
iter:   1  11:16:43  +2.00   +inf   -58.748486    35              +0.6258
iter:   2  11:16:50  +0.14   +inf   -59.201827    3               +0.6286
iter:   3  11:16:58  -0.92   +inf   -59.268946    2               +0.6292
iter:   4  11:17:06  +0.37  -1.08   -40.658831    33              +4.3011
iter:   5  11:17:14  -0.70  -1.32   -39.838549    3               +4.8636
iter:   6  11:17:22  +0.21  -1.41   -38.458435    34              +4.8171
iter:   7  11:17:31  -0.94  -1.89   -38.404152    4               +4.9570
iter:   8  11:17:39  -1.54  -1.88   -38.462165    3               +5.2815
iter:   9  11:17:47  -1.81  -2.27   -38.452502    3               +5.3342
iter:  10  11:17:55  -1.45  -2.31   -38.453334    3               +5.2154
iter:  11  11:18:04  -1.90  -2.58   -38.445978    4               +5.3398
iter:  12  11:18:12  -2.99  -2.47   -38.459463    3               +5.4045
iter:  13  11:18:20  -3.38  -2.92   -38.458859    3               +5.3865
iter:  14  11:18:28  -4.08  -3.09   -38.460166    3               +5.3805
iter:  15  11:18:36  -3.83  -3.15   -38.464395    3               +5.4267
iter:  16  11:18:45  -3.71  -3.36   -38.467574    2               +5.4660
iter:  17  11:18:53  -4.67  -3.93   -38.467725    2               +5.4670
iter:  18  11:19:01  -5.28  -4.02   -38.467837    2               +5.4674
iter:  19  11:19:09  -5.56  -4.10   -38.467843    2               +5.4676
iter:  20  11:19:17  -5.67  -4.17   -38.468008    2               +5.4707
iter:  21  11:19:25  -6.01  -4.32   -38.468129    2               +5.4733
iter:  22  11:19:34  -6.58  -4.40   -38.468159    2               +5.4741
iter:  23  11:19:42  -5.61  -4.43   -38.468324    2               +5.4785
iter:  24  11:19:50  -6.37  -4.53   -38.468401    2               +5.4810
iter:  25  11:19:58  -6.27  -4.50   -38.468457    2               +5.4830
iter:  26  11:20:06  -6.89  -4.68   -38.468466    2               +5.4835
iter:  27  11:20:14  -7.12  -4.72   -38.468490    2               +5.4843
iter:  28  11:20:23  -6.24  -4.72   -38.468552    2               +5.4867
iter:  29  11:20:31  -6.67  -4.76   -38.468587    2               +5.4884
iter:  30  11:20:39  -7.11  -4.85   -38.468608    2               +5.4893
iter:  31  11:20:47  -6.78  -4.82   -38.468589    2               +5.4886
iter:  32  11:20:55  -7.39  -4.75   -38.468595    2               +5.4888
iter:  33  11:21:04  -6.89  -4.77   -38.468610    2               +5.4896
iter:  34  11:21:12  -6.07  -4.51   -38.468555    2               +5.4871
iter:  35  11:21:20  -5.62  -4.58   -38.468638    2               +5.4910
iter:  36  11:21:28  -6.68  -4.81   -38.468628    2               +5.4906
iter:  37  11:21:36  -7.49  -4.84   -38.468633    1               +5.4908

Converged after 37 iterations.

Dipole moment: (-0.000234, -0.000234, -0.000254) |e|*Ang

Total magnetic moment: 5.490774
Local magnetic moments:
   0 Fe 2.648383
   1 Fe 2.648317
   2 Cu 0.051936
   3 Cu 0.051937
   4 Cu 0.051936
   5 Cu 0.051937
   6 Cu 0.052148
   7 Cu 0.052146

Energy contributions relative to reference atoms: (reference = -339367.620247)

Kinetic:        -60.337771
Potential:      +46.842434
External:        +0.000000
XC:             -25.481338
Entropy (-ST):   -0.217767
Local:           +0.616925
Free energy:    -38.577517
Extrapolated:   -38.468633

Spin contamination: 0.328356 electrons
Fermi level: 8.31994

Warning: Showing only first 2 kpts
                      Up                     Down
 Kpt  Band  Eigenvalues  Occupancy  Eigenvalues  Occupancy
  0    39      7.30225    0.00400      8.40270    0.00122
  0    40      7.66101    0.00399      8.54933    0.00037
  0    41      7.66967    0.00399      8.75529    0.00005
  0    42      7.77660    0.00398      9.18732    0.00000

  1    39      7.12560    0.00400      8.56264    0.00032
  1    40      7.17889    0.00400      8.80569    0.00003
  1    41      7.60977    0.00400      9.09824    0.00000
  1    42      7.95562    0.00390      9.15214    0.00000

Forces in eV/Ang:
  0 Fe   -0.00000   -0.00000   -0.00000
  1 Fe   -0.00000   -0.00000   -0.00000
  2 Cu   -0.00000   -0.00000   -0.00000
  3 Cu    0.00000    0.00000   -0.00000
  4 Cu   -0.00000   -0.00000   -0.00000
  5 Cu    0.00000    0.00000   -0.00000
  6 Cu   -0.00000   -0.00000    0.00000
  7 Cu    0.00000    0.00000    0.00000

Stress tensor:
     0.001534     0.000210    -0.000237
     0.000210     0.001534    -0.000237
    -0.000237    -0.000237     0.001550
Writing to fecu_id11_relaxed.gpw (mode='')

Writing to fecu_id11_relaxer_final.gpw (mode='')